Ca Si  O 
 1.0000000000000000
    12.0937876200000005    0.0000000000000000    0.0000000000000000
     0.0000000000000000   12.0937876200000005    0.0000000000000000
     0.0000000000000000    0.0000000000000000   12.0937876200000005
 Ca  Si  O  
  27  27  81
Direct
  0.7335406622594551  0.4000409583842188  0.5858689438437484
  0.1699197228006225  0.8163186819713640  0.7917436464788853
  0.7118753892918122  0.9597600681199989  0.0451857182522608
  0.5289021529881968  0.2167408211853484  0.4568697899789975
  0.8570131133161077  0.1462205667540902  0.8778857396538273
  0.8795711487779541  0.6093176010312641  0.7298208044768029
  0.8504991424679904  0.4243004260728038  0.2135066433389212
  0.4008420887086820  0.4709993162588711  0.3126050563140284
  0.3973702863817944  0.7358709983696572  0.2741432232956643
  0.9639264650820781  0.5837169811321691  0.9852925199624103
  0.6084523113198179  0.8257530927271236  0.8290082797071643
  0.9476206669155977  0.5659914532218319  0.4731164569599081
  0.1964281302634617  0.2532481565109542  0.4050681948390292
  0.3442707934704082  0.9957676534756281  0.5990144946831801
  0.4643927375334543  0.3210107785901403  0.7818331458345885
  0.0641720381062885  0.0661307685507380  0.6434543506561098
  0.6098047312988948  0.2723321678440389  0.1341407779740720
  0.5632387911902160  0.8480801856515486  0.5045401946623568
  0.0594038834295322  0.3633586877888302  0.6712884280003588
  0.5831569316081640  0.5456696096669176  0.8734346857994517
  0.9544359395654741  0.9198382607284449  0.0798084231613123
  0.7523640761602858  0.6900668270541368  0.3226462860607106
  0.2914562931608683  0.5399060976729804  0.0650154794102462
  0.7309988580732162  0.0067656992640326  0.6008814011238607
  0.2021797882374257  0.6435346968661254  0.4741027699641380
  0.4491823397838038  0.5676735730538651  0.5580247795024533
  0.3378257365164479  0.1977612386747040  0.0605382120973611
  0.4857267834177495  0.0655446494437447  0.2412141515678444
  0.1275521423452945  0.5785224149653125  0.7664936950496903
  0.0537096069824980  0.6584464528574216  0.2204751657446420
  0.3753692922879359  0.7406785294613930  0.0059680327014044
  0.3947886675390451  0.9738605613118911  0.0012015284587906
  0.6470247011002166  0.2740465662319941  0.8729666793999811
  0.8938000409502809  0.2648310438909461  0.4708871165045314
  0.8613913339086734  0.1344874741565869  0.2434835729321332
  0.1447786537200659  0.4300556602630335  0.2603805523087233
  0.8599190209692140  0.9215280630172006  0.8015838812952463
  0.1051284535456395  0.1024084876397060  0.1564946747427668
  0.9249239371048257  0.8145906724629584  0.5612843538590270
  0.2559500743076552  0.0618240210174949  0.8431496963893268
  0.8671969642212056  0.3764464105910932  0.8405520428677745
  0.5114663581300760  0.0767122285549116  0.7811930841563761
  0.1558630471468458  0.8234290896204775  0.2043584787211601
  0.5772033319367982  0.5459231348731093  0.1661315580469901
  0.1044028479474820  0.8590199544119330  0.4217550109417251
  0.3362420771533278  0.3298600823287816  0.5699510456592588
  0.0267511610229517  0.3025930688536434  0.0219746954676553
  0.2284217258314976  0.3239180290814467  0.8592934518557388
  0.2769783069830359  0.0289954016903763  0.3158097181799195
  0.6708677392831544  0.9337603681186524  0.3138249818215346
  0.6673529256171938  0.4638930843073627  0.3946998740168053
  0.7431505622884420  0.6900504136685014  0.0570931408501119
  0.7011409342080045  0.7025002072923784  0.6146504638221850
  0.3699835610309816  0.6427950013893166  0.8042718249752099
  0.4709238634703261  0.3061415923889029  0.6187419305780730
  0.7582656267945940  0.7975609993389317  0.1263315354962385
  0.2682496321198007  0.9034196426545151  0.2547349454777345
  0.6716249917079328  0.8254479823584003  0.6559128876119622
  0.0541734856428709  0.7544150514857478  0.1304305077584949
  0.9646100383562053  0.2702461580022355  0.8511639308909908
  0.2696436618919226  0.3616067321016838  0.2148725007955779
  0.5727743001327817  0.4294705292666616  0.4821058127693498
  0.5993537060310969  0.5889586524754931  0.2928529540359168
  0.9819849176415419  0.0864714085329704  0.2197854984326242
  0.0156972038839227  0.9477189868164727  0.5274554937157065
  0.2443483532911586  0.8125300963404880  0.4512082179263538
  0.4150127418890460  0.7171653374875455  0.7108025930423937
  0.1641263177730584  0.7134473178387103  0.2899115124364984
  0.9910210652434129  0.2314070403693760  0.5527976114731871
  0.4180858808565716  0.5108833406155019  0.7826351352778262
  0.6820491114263506  0.5888059658186721  0.6972873557043662
  0.7833462789054666  0.5185113569904083  0.3829435281583025
  0.6799567040850680  0.3890954784271298  0.2833757543693329
  0.5251680589707594  0.4401852659621949  0.1215879140765000
  0.6027214516274100  0.0195141164551061  0.2237685740011366
  0.3529999082289160  0.6129560029432698  0.4363103426153931
  0.2691869307028562  0.7955794588362384  0.1167613112094654
  0.9017701577597242  0.3856698766800404  0.4446688753742147
  0.1354023934810921  0.9656132468117544  0.1491343098350192
  0.9329197869608363  0.1922675925079624  0.0184556143214296
  0.2786842671543458  0.0778798627522120  0.9783180176269707
  0.8333130485385520  0.8371447157925201  0.4862324570902296
  0.8194904509163193  0.6891172345558355  0.9516237816982601
  0.6207149336396235  0.6363933807860270  0.0346383542660558
  0.6015698330908841  0.8086075361392860  0.2991852588858345
  0.4580862831457594  0.2005323506747674  0.2628349595575253
  0.8343744199139491  0.5031581363258635  0.8986299885097536
  0.0538844000305009  0.3305925418591070  0.2446180322455505
  0.6839657400896213  0.1781951459471718  0.9886588350722171
  0.1023489727860791  0.4944589972880639  0.3733742804059594
  0.0605141055056828  0.5396040682249057  0.6401102543919156
  0.2820596803237066  0.1991245485423863  0.5654403099233521
  0.2087644433101100  0.0520329486321838  0.4318029019596757
  0.3332414779084734  0.3618759513159038  0.9273836140013182
  0.1273406908066738  0.2233785406924485  0.1056497525958704
  0.7952553676480058  0.2263334627667291  0.5472821797411388
  0.8242220760943046  0.6611831215537750  0.5768260903195851
  0.2181926070568783  0.6610213666047494  0.7213738279620955
  0.5861508695817498  0.6887743204804186  0.4983532867761738
  0.0334937806688555  0.8469869632124398  0.3061029725607171
  0.1490503526801639  0.4522127592976534  0.8192558924728331
  0.8980452205096686  0.4331879593566073  0.6847446003024815
  0.2818898972859588  0.6604252564177243  0.9290981959545938
  0.7732034011028879  0.2250407486484371  0.2094500845881400
  0.9207391521896099  0.9332465944196894  0.9203887458377576
  0.7722401974841361  0.2977634429469169  0.8277895341443081
  0.0302650973789798  0.7387158316907835  0.5475496013382116
  0.5949618751449515  0.3817920741690683  0.9229960216549593
  0.8944260168841960  0.8056202197471696  0.7391480023360953
  0.9040802049407909  0.2100640560115938  0.3557273531813518
  0.2411723201734214  0.4152481181077661  0.6121940307398915
  0.4320456240986974  0.0420333410816090  0.3619198242543638
  0.4610090755008645  0.6964064042328535  0.8983033439444508
  0.0493736593333694  0.6457664683216919  0.8549714874189265
  0.8802898185837332  0.0245132897413987  0.7113072149351999
  0.5881832262571186  0.1787930107540618  0.7854863826358479
  0.4984704692540318  0.0331812855169024  0.9382653537949264
  0.5460251566746134  0.9862536001769145  0.6895511623016247
  0.3852548991595406  0.0866697640916568  0.7588583186976786
  0.8132583346953136  0.0031021232701290  0.1965797452957091
  0.4151448047340524  0.0545763619090245  0.1281928192153915
  0.7331125374930306  0.5962522177977523  0.1580939561761545
  0.1370106224835458  0.3201305994159669  0.9564353537076584
  0.4327277437339353  0.6622920867862899  0.1213324945092760
  0.6747787315616842  0.9924521322129849  0.4164080235435786
  0.3900004662063017  0.3903507973129100  0.4375090795583195
  0.9815789141499741  0.4062769823966861  0.0815041640362459
  0.3015023311613272  0.9039968389985668  0.9016177514121089
  0.4690488288895551  0.8630238340500972  0.0533139327611245
  0.1802711440371730  0.0075132789540420  0.7423424540011890
  0.2329329237881887  0.1925380313566313  0.8019727884058874
  0.1106718599710287  0.5354949576996128  0.1395653680248769
  0.7215646879368632  0.9536733009042206  0.8489107195021174
  0.9550864404876990  0.6250015815971474  0.2869962379908239
  0.2283392041243734  0.1200675690383920  0.2327809647776831
