Ca Si  O 
 1.0000000000000000
    13.3109356200000004    0.0000000000000000    0.0000000000000000
     0.0000000000000000   13.3109356200000004    0.0000000000000000
     0.0000000000000000    0.0000000000000000   13.3109356200000004
 Ca  Si  O  
  27  27  81
Direct
  0.3339140062642719  0.6264500278606260  0.7076986884262310
  0.5646866181747786  0.8941464454322107  0.3701781806078632
  0.0293904426531965  0.8236460511105680  0.7421941674149573
  0.8684517587652489  0.2446323671723986  0.0641988455504227
  0.9204487325136652  0.3913893732738224  0.8363138856500606
  0.0142494558921171  0.9658734905668487  0.3285880282846714
  0.3857523630634163  0.1436611365715553  0.9907817366485016
  0.0633454607603308  0.1885188540938943  0.5505624404785453
  0.2534334705166277  0.0354805953152074  0.4204857982777923
  0.0549698962483600  0.5181031797372633  0.1254858311755549
  0.1237248032005732  0.1384386667178547  0.9615152837768739
  0.6732966626729128  0.3291348110359202  0.2250258220390972
  0.2308163173281128  0.5829263690781790  0.3253155934052966
  0.3455918585533658  0.4690332977510111  0.9952380650158985
  0.5546502928694955  0.8662535338744278  0.7155918894001831
  0.9898548836944941  0.6969124534012282  0.4461021606233266
  0.7261871874337861  0.1591802327415960  0.6978284581320813
  0.6086062183208124  0.5037894098085947  0.0019178877224560
  0.7070547043934992  0.8451558508852587  0.9649500633675215
  0.3312377150540226  0.9338838729955482  0.7118376055972540
  0.7599967341739723  0.4680106588931124  0.5710550638212762
  0.3584261306794601  0.3513867742679383  0.2595384673643249
  0.4261658768356359  0.7886273639718798  0.2221744387041066
  0.4191203044823981  0.2047087693749960  0.6971333439594835
  0.9525256009013736  0.9456757991591879  0.0249657867400909
  0.5604293584585753  0.2967439917645699  0.4666837634363075
  0.6176493790299017  0.6703354373221736  0.4992078002402658
  0.8595688813045284  0.5055367204908771  0.0020187882179840
  0.2019544648657838  0.8538252309569806  0.5037241799836757
  0.5524562795533977  0.0478568440405393  0.8779729362104749
  0.8503381372375685  0.0733649022036214  0.4779300390005192
  0.7245248835483437  0.8750324817512715  0.5447220230789456
  0.4024646383196916  0.4380939309208378  0.8154890918178748
  0.8414115543592419  0.7119279606282101  0.6298102649827104
  0.5620790343812060  0.5912469675065560  0.7284175813630747
  0.4995655286626650  0.5036283955823083  0.2343484537114754
  0.7585093931962086  0.1287290502273498  0.2960148627027917
  0.8375631111346326  0.7155944827565771  0.0860271879220463
  0.1960350116996509  0.0112531458551221  0.1517586823096662
  0.6141877095187994  0.1005331186478986  0.0986848924448483
  0.1781465952278417  0.3351996769705660  0.3797274206935124
  0.8046971299227124  0.7824391423207859  0.3177647154753498
  0.1824013404701599  0.1273830163713165  0.7600604186529751
  0.7858306680022842  0.5713198829219489  0.7761132458996898
  0.1858608756459450  0.3287979819708571  0.1305970128341737
  0.1830479967417948  0.7677083243228847  0.1512006471563116
  0.1431958649951009  0.8289804732749506  0.9268614936025060
  0.3678012590372666  0.7515485459165641  0.4878190132813518
  0.9356768513917582  0.1409139262293269  0.8249351062521328
  0.6576039152986302  0.6735536889329496  0.2151603577510203
  0.4468678010178821  0.7137222259362110  0.9374302044742365
  0.8007652004555332  0.2749441935923058  0.4725353596143379
  0.0218961062032392  0.4612818261080283  0.4030075370464454
  0.4985162598209606  0.1056231237335066  0.2887033143054147
  0.6717150555942663  0.9983115739838578  0.0616641807482501
  0.4805871715274662  0.5066695101332027  0.7178875589813724
  0.4184284613045104  0.6539840367735171  0.5611379810730389
  0.4401368000906911  0.5901763237586750  0.2904376138812697
  0.8760670829538577  0.0391880852624843  0.8387552226775776
  0.7546548970537353  0.4453480055220941  0.0702762718343010
  0.6304381021414630  0.1232857942408108  0.2897612925273843
  0.9590093915577063  0.5000702151994932  0.3151193995482640
  0.0722482421562490  0.2956440728394117  0.0888182975074745
  0.6264732831755667  0.9391777375300684  0.8629131330739618
  0.8045652060632533  0.2645720444105040  0.3434747737139157
  0.5961423183564312  0.7858955139323256  0.2533342318126244
  0.2335501815010656  0.0508036233744477  0.2562796881741660
  0.2073202281779198  0.0089538837390906  0.8014237792549702
  0.6653777460009981  0.2082544577734198  0.0911162058493977
  0.7664776700347379  0.1568187323258949  0.5106975508007152
  0.7232524959053178  0.6814004085762380  0.3376466942899991
  0.4720329599190112  0.7754882237196186  0.4262855175615370
  0.8647210367921528  0.2385747689462568  0.7735846430305250
  0.1781206571563299  0.3331086473994981  0.2581606724050852
  0.7021718582994694  0.3408078477356500  0.5078595339190739
  0.8164145211304087  0.5409110708327504  0.8962575517287341
  0.1010106095006415  0.6933307780508970  0.2032533825747705
  0.6236907860576069  0.9139075882631306  0.5968187689273791
  0.5269575573230817  0.4118327829460270  0.3378042001227859
  0.4679146671434355  0.4318897043842812  0.1423333666457925
  0.8298652811003527  0.1529913161731602  0.1937857565868086
  0.5650898813377327  0.2237652787926263  0.6358798668729493
  0.0533863967407574  0.5538041840517894  0.4751982603308541
  0.9665451067668825  0.0898019383554046  0.4244450811940745
  0.7226206139520039  0.6807374484168679  0.0979915121849263
  0.5153026951534455  0.7007930882021650  0.7333500475603681
  0.9597672977100612  0.7537515165293842  0.6310844654209212
  0.8608089939811457  0.7713729412508419  0.2015201820952087
  0.7129170947038206  0.8144447347270694  0.4470135548593390
  0.8172794948879784  0.0358369076087530  0.3715806109503217
  0.0564992305176516  0.1182488500383867  0.7719446794229179
  0.4116693203569111  0.3200713872884016  0.8161334056546206
  0.2085907955131406  0.8813727670932870  0.1503033804020457
  0.0537387025541034  0.9127330735298079  0.8994072717181394
  0.3923561633152876  0.8236237393806882  0.8579661720278082
  0.9276232116582049  0.4180794587901402  0.9950907793512414
  0.6115610556908395  0.1385846737346026  0.8135016965847213
  0.2621911118521359  0.4336562691601388  0.3871411211888950
  0.7844622533002679  0.6616659272821274  0.5448785477635718
  0.2346028580671626  0.2072969157670676  0.8410434397398129
  0.0754881571578062  0.3627085899766375  0.4421622174444864
  0.2120971741278694  0.4556251989445051  0.1004812530225430
  0.2434903963572772  0.7269808604182851  0.4705539354114913
  0.5036830220954821  0.1026609097219869  0.1668319150055358
  0.4792618424519132  0.4244842715271129  0.9123871917577495
  0.1608286390314613  0.2179635326040289  0.3964263062073167
  0.3333763400772875  0.8930744847220589  0.5198337500485934
  0.2314445218539792  0.1625603580223762  0.6727187213305745
  0.4369707844774325  0.0145877747097089  0.7933639957008520
  0.7768437895877975  0.8345039625396369  0.6441354525911229
  0.8883196266259155  0.3242654403282283  0.5544181363864188
  0.8002919579893513  0.9902414530647395  0.5546598616934787
  0.5470709015419308  0.7288806802898502  0.0233539165746487
  0.5593688064130236  0.1009628833288580  0.9880429276691219
  0.0821080862533689  0.0435577472953024  0.1306932750381674
  0.4563110177524846  0.9908388693716782  0.3236491493150201
  0.1748381989394671  0.7281665869855660  0.9986380649326587
  0.2786569821904074  0.0290510660587208  0.0627128463265755
  0.7903537279673207  0.6770296895177981  0.7348039543744709
  0.1300379822586806  0.7609308766230813  0.8300835790534760
  0.3028475890111773  0.4980099798574489  0.8254888148876794
  0.9151861460208910  0.5956111272965497  0.0456317502645993
  0.4142245336770699  0.6120138856174558  0.8961746311864439
  0.9712824957679420  0.1602393731658661  0.9536371884277808
  0.6198366835764171  0.5870289003771771  0.6078797675080333
  0.4414836994005384  0.1988660876717545  0.3537512925030584
  0.6714729306158269  0.5875675957930897  0.8001428843211548
  0.2900808380590755  0.7134544859289161  0.1791562545323166
  0.2729971831987570  0.2578213266123512  0.1037955414587153
  0.1289870012908980  0.9212082208237740  0.4407148901829036
  0.1365914006276292  0.8354400717926392  0.6083105268598692
  0.5948890931530175  0.5669922660177361  0.1719883203822452
  0.9102068551662035  0.8135363260062104  0.3621171514613636
  0.8104303407336290  0.4650069812297687  0.7172752887223415
  0.8528553134118455  0.8030206249318482  0.0063529358426872
