Sc  F  C 
 1.0000000000000000
    13.1286234000000004    0.0000000000000000    0.0000000000000000
    -6.5643117000000002   11.3697213799999997    0.0000000000000000
     0.0000000000000000    0.0000000000000000   26.8280942399999986
 Sc  F   C  
  32  32  16
Cartesian
  0.0256522700000000  1.9815087700000000 12.1901740499999995
 -1.5563310900000000  4.6872470499999999 12.1615353000000006
 -3.2258137499999999  7.6996743199999997 12.0485889000000004
 -4.8731741700000004 10.5017541500000000 12.1041711299999992
  3.3164692800000002  1.8889359100000001 12.1348286999999999
  1.6837588500000000  4.7400130400000000 12.2641703000000000
  0.0351999400000000  7.6170862599999998 12.0831290399999993
 -1.5882679399999999 10.4515610799999994 12.1786515899999994
  6.5906163600000003  1.8952794300000000 12.2403074400000005
  4.9198337399999996  4.7087622299999996 12.1413178399999993
  3.2041943200000000  7.5343056300000004 12.0362488400000007
  1.7110637099999999 10.4443615500000000 12.1373391900000005
  9.7716602300000002  1.9044193700000001 12.2737730799999998
  8.2627685300000007  4.7315368700000002 12.1337876799999993
  6.5376087600000004  7.5426818899999999 12.0702023300000008
  4.9462420199999997 10.4358496299999999 12.0470092399999995
  1.6561432400000000  0.9502752300000000 14.5701063400000006
 -0.0446324200000000  3.7927428500000002 14.7916250199999997
 -1.6608198100000000  6.6604104599999996 14.6663935799999994
 -3.3857221399999999  9.4533255999999994 14.6475799900000005
  4.8728603399999999  0.8699618200000000 14.6329633000000001
  3.2428871099999999  3.7226958600000000 14.7127258899999998
  1.6183647800000001  6.6551944799999996 14.7117971799999996
 -0.0120545500000000  9.5229309900000008 14.6935391200000005
  8.2720843300000002  0.8890659100000000 14.7741029699999995
  6.5145206299999998  3.7927558900000000 14.7551981199999993
  4.8476804099999997  6.6493889099999999 14.6176353300000006
  3.3043803800000000  9.5188090100000000 14.5941533700000008
 11.5689000600000007  0.8868506700000000 14.6039201999999992
  9.8446579500000002  3.7558427999999999 14.7291833800000003
  8.2322846599999995  6.5934909700000004 14.6811739600000006
  6.5897009000000004  9.3597814199999991 14.6445672699999996
  0.0016888700000000  1.8482341000000000 15.8369484400000005
 -1.6679516599999999  4.9658415800000002 16.0049407899999991
 -3.3240268600000000  7.4024187100000001 15.9362559200000007
 -4.9609679000000000 10.2727023000000006 15.7493774500000008
  3.1626583500000001  1.6463848100000000 15.8695010599999993
  1.5475900199999999  4.7754777199999996 15.8550619600000005
 -0.1039457200000000  7.7495573300000000 15.8123034499999999
 -1.6917836100000001 10.4097563999999991 15.9198764100000005
  6.6203914399999997  1.9370823900000000 15.8197651799999992
  4.8242434999999997  4.7255455800000004 15.9523318500000002
  3.2882606399999998  7.5616999299999996 15.7876010600000001
  1.7669594000000000 10.3554404899999994 15.8086600599999993
  9.9354935900000001  2.0476805499999999 15.9391741800000002
  8.2961021800000001  4.7361477299999999 15.7885369200000003
  6.6339590599999996  7.5256129500000002 15.8313459000000005
  5.1254376900000000 10.3136792600000007 15.7402752899999996
  1.5857579399999999  1.0649314100000000 10.9602882000000008
  0.1319928300000000  3.8676699399999999 11.0119638200000001
 -1.5677046699999999  6.8224747700000004 10.9817194400000009
 -3.1740906899999999  9.5926200900000005 11.0005814300000004
  4.8971648400000003  0.9338114800000000 11.0598719499999998
  3.3687160899999999  3.6597623600000002 11.0407151599999995
  1.7124766499999999  6.5180376799999999 10.9718021500000003
  0.0586447300000000  9.4979840499999995 11.0184602799999993
  7.9300638100000000  0.9660897400000000 10.9642175500000008
  6.6264335100000000  3.7993832799999998 11.0944915999999996
  4.7396428999999998  6.6760451999999999 10.9460316500000001
  3.1590650000000000  9.4945033300000006 11.0203463399999997
 11.3811299600000009  1.0400826100000000 10.9976465900000004
  9.7430506200000000  3.6615747800000000 10.9853532000000005
  8.1245612800000000  6.6820770899999999 11.1153454699999994
  6.3131799300000004  9.4203673899999991 10.9296064899999994
  6.5423479000000002 11.3596300699999997 13.3257596300000003
 -1.5768053600000000  2.9070540800000000 13.4179334000000008
  9.8918229600000007  5.5594856799999999 13.2923269000000008
 -4.9015563999999996  8.5547065599999996 13.2820929099999994
 -3.3469795100000002 11.3639914399999995 13.3608985499999999
  1.6532016700000001  2.8456394000000000 13.5138586600000004
  0.0146198900000000  5.7752655600000002 13.4577414199999996
 -1.6260957800000000  8.6103506400000001 13.3708504900000005
  6.5888347600000001  0.0774388200000000 13.4589739200000000
  4.9536680700000000  2.8008406899999998 13.4961226599999993
  3.3021372800000002  5.6741210100000004 13.4085728500000005
  1.7064489599999999  8.5271901700000008 13.4105808399999997
  9.8817117999999997  0.0568210700000000 13.3804696100000005
  8.2349380300000004  2.8519657000000000 13.5099434299999999
  6.4626166100000004  5.6414688000000002 13.4455986799999998
  4.8701914300000002  8.5529518200000005 13.3654717200000004
