Sc Cl  C 
 1.0000000000000000
    13.7939866799999997    0.0000000000000000    0.0000000000000000
    -6.8969933399999999   11.9459428800000005    0.0000000000000000
     0.0000000000000000    0.0000000000000000   27.8102210700000008
 Sc  Cl  C  
  32  32  16
Cartesian
  0.1112416300000000  2.1625440800000000 15.1222469400000001
 -1.7904889300000000  4.9167773099999996 15.1457742799999995
 -3.5389731800000002  8.0574884999999998 15.1101103299999995
 -5.1843809299999997 10.9783258099999994 15.1502263300000006
  3.4905865199999999  2.0707283099999998 15.2065452000000008
  1.7999936000000001  5.0165827199999997 15.3257828299999996
 -0.1097585600000000  8.0624799899999999 15.0064205400000006
 -1.7063840299999999 10.9791514400000008 15.0115721900000008
  6.8699741699999999  1.9830780299999999 15.0128881399999994
  5.2044300400000001  4.8858491900000001 15.1331960999999993
  3.4958967699999999  7.8758048199999999 15.3282693000000005
  1.6876022200000000 10.9418701200000008 15.1333307700000006
 10.4688262200000004  1.8378013499999999 15.2284046199999992
  8.5844354999999997  4.8875024900000001 15.0134745299999999
  6.7474947099999998  7.8229466800000003 15.2644064200000003
  4.9836396499999998 10.8573764300000004 15.2024427200000005
  1.7017171099999999  0.8502701600000000 12.6772130700000005
 -0.0184634800000000  4.1370817700000000 12.6723770099999999
 -1.7081536700000000  6.9434181700000002 12.7635909800000000
 -3.4453005200000000 10.0168213099999992 12.6127158999999995
  5.1082830399999999  1.1018543300000001 12.6185836899999995
  3.3840724400000002  4.0514680700000003 12.7067277399999998
  1.6934858900000000  7.0493175399999997 12.6671901600000005
  0.0157284400000000 10.1034315800000005 12.6205539099999999
  8.6962975700000005  1.1249662899999999 12.5103371100000000
  6.9014065999999996  3.9509152599999999 12.5658262199999999
  5.1378673900000003  6.9440599299999999 12.6962440099999991
  3.4189423200000002  9.8645577600000003 12.7109714199999999
 12.1450488399999994  0.8790466300000001 12.7380524200000007
 10.4599899599999997  3.8977810800000001 12.6229613599999997
  8.5638667099999992  6.9922458599999997 12.6282403700000003
  6.8961706600000001  9.9103782799999998 12.6634773700000007
  0.0283201500000000  1.9590190300000001 11.1104541200000000
 -1.7316557299999999  4.9026582100000002 11.0033996100000007
 -3.3871507300000001  7.8554982300000002 11.0319367199999991
 -5.1142668100000002 11.0402140000000006 11.0507711900000007
  3.4804070299999998  2.1394018600000000 10.9946876800000002
  1.7641433000000000  4.9848845099999997 11.0815192400000004
  0.0194577400000000  7.9743546099999998 11.0469674300000005
 -1.7819347600000000 11.0615301200000005 10.9282066800000006
  6.9832825999999999  1.8141293700000001 10.9427636499999998
  5.2761223700000004  4.7964790500000003 10.8954342200000003
  3.4502783899999998  7.9956246100000001 10.9368301399999996
  1.6733636700000001 10.8704238499999999 10.9014303399999992
 10.5225784499999993  1.8849928300000001 10.9741935799999997
  8.6526246600000007  4.8796789100000000 10.9989311999999995
  6.9610133699999999  8.1696212100000007 10.8505092399999992
  5.1869458699999997 10.8992686499999998 11.0855739900000003
  1.6789578500000000  1.0150761800000001 16.7681922099999987
  0.0384002800000000  3.9145487200000000 16.9191722300000009
 -1.7010210800000001  6.8745995999999998 16.6682350100000001
 -3.3218749700000001  9.9520388200000003 16.8664583700000001
  5.1283910300000004  1.1752373899999999 16.8287745599999994
  3.4729946300000001  4.0835657699999999 17.0112788299999984
  1.6495530599999999  7.0071596600000001 16.8195820100000013
 -0.1577966400000000 10.0095553000000006 16.8460142700000013
  8.5607971799999998  1.2536015899999999 16.6854018900000014
  6.9054524700000002  3.8758036400000000 16.6385229400000014
  5.2127983499999999  6.8565012100000002 16.7837917099999991
  3.4641909499999999  9.9700911199999993 17.0848256999999997
 12.0410644100000006  0.9319352300000000 16.8354010400000007
 10.2426492000000007  3.9091997200000002 16.8626502400000007
  8.6582038699999995  6.9564034799999996 16.8476693299999987
  6.8397910599999996 10.1103043699999997 16.7958748399999998
  0.0267255000000000  0.0613201100000000 13.9702509799999994
 12.0017028499999991  2.8202706000000002 13.9643084000000002
 10.3856957100000002  5.7706971899999999 13.8354824199999999
  8.6787110300000005  8.8357169500000001 13.8108138799999995
  3.4394837300000001  0.0367986700000000 13.9109427599999993
  1.7236000300000001  3.2139917100000002 13.9281099600000005
  0.1299874900000000  6.0864458800000003 13.8325830300000003
 -1.7949242500000000  9.0724587600000000 13.9222388499999994
  6.8960761899999996  0.0432288300000000 13.8251867399999995
  5.1670849199999997  2.9693253400000001 13.8570758999999999
  3.3833912499999999  5.9596222599999997 13.8353890699999997
  1.8413256800000000  8.9407979599999994 14.1584011000000007
  3.4603979400000000 11.9443512199999997 13.9553192399999997
  8.5957068599999999  2.9750362500000000 13.7967807800000006
  6.7943923200000000  5.9235515400000001 13.9187906199999993
  5.1951589299999998  8.9319774600000006 13.9202701399999995
