Sc Cl  C 
 1.0000000000000000
    13.7939866799999997    0.0000000000000000    0.0000000000000000
    -6.8969933399999999   11.9459428800000005    0.0000000000000000
     0.0000000000000000    0.0000000000000000   27.8102210700000008
 Sc  Cl  C  
  32  32  16
Cartesian
 -0.0831906100000000  1.9085590600000000 15.2080545899999997
 -1.7993304999999999  4.7391411600000000 15.0912062900000006
 -3.4550693099999998  7.9947978199999996 15.1704443399999995
 -5.1246120800000003 11.0159432499999994 15.1163567499999996
  3.4632118500000000  1.9493580500000001 14.9655980100000008
  1.6882601399999999  5.1703183499999996 15.1815507800000002
  0.1722626600000000  8.0265789600000002 15.1835686699999997
 -1.7416977700000000 10.8603675699999993 15.1771102700000000
  6.8494333699999999  2.0085902700000000 14.9752965000000007
  5.0173826799999999  5.0755380299999997 15.2041641599999995
  3.3891895800000000  8.0710617800000009 15.1505447499999999
  1.6865466000000000 10.9886390800000004 15.1398270600000000
 10.2903413199999996  2.0585867200000001 15.0934515400000002
  8.5624248900000008  4.9095566799999997 15.0557938000000000
  6.8912188199999997  7.8676620000000002 15.2818382699999997
  5.3130617300000003 10.8090688799999999 15.3446365500000006
  1.5852997099999999  0.9237824400000000 12.8204871399999991
  0.0594633400000000  3.8643720500000001 12.6638496400000005
 -1.8104103100000000  6.8797020900000003 12.8068039599999999
 -3.4199948000000000 10.0128995100000004 12.7924787400000000
  5.0004926300000001  1.0542877100000001 12.5040160500000006
  3.4404383200000002  3.9393161700000001 12.5332854299999994
  1.4545816600000001  6.9397750399999998 12.5372564999999998
  0.0517164700000000 10.0331234800000004 12.6945741900000009
  8.6641572599999996  1.0289781400000000 12.6312403700000004
  6.8479635500000002  4.1010973200000000 12.5674029300000001
  5.1517102699999997  6.8950173200000000 12.6330589999999994
  3.4512856900000002  9.8592735400000002 12.6305172199999998
 12.0761842500000007  0.9111122500000000 12.8009850600000004
 10.5260571100000000  4.0257192799999997 12.5822057300000001
  8.6280566099999998  7.0677019999999997 12.7483646200000003
  6.8489305399999996  9.8257637100000004 12.8218164699999999
  0.0669471200000000  1.9705786999999999 11.0834711200000005
 -1.5903012299999999  4.9292569700000000 11.0163352499999991
 -3.2687170600000002  8.0006783099999996 11.0410505299999997
 -5.0864381900000000 10.8789835799999999 11.0027658200000005
  3.3327507500000002  2.2108306400000002 10.7349311800000002
  1.7231316600000000  4.9132394399999999 10.9652614600000007
 -0.0586547900000000  7.9569508500000001 10.9558835800000001
 -1.7714321200000001 10.9725596999999997 10.9660330600000009
  6.7447276399999998  2.1680950299999999 10.8633963100000006
  5.1892313500000000  4.9224343900000003 10.8896205500000001
  3.6027747099999998  8.0606671199999997 10.9972218099999992
  1.6352290599999999 10.9454135800000003 10.9376604600000000
 10.4989442299999993  1.9019769799999999 10.9921747399999994
  8.7724438899999999  5.1102543699999998 10.9026896499999992
  7.0056997399999998  8.0855054000000006 11.0909017100000007
  5.1433513399999997 10.8913935100000003 10.9882757499999997
  1.6249987699999999  0.9253042200000000 16.7374826399999996
 -0.0208923000000000  3.9231945399999999 16.8358221199999996
 -1.6709452300000001  6.7466427099999997 16.7722474000000012
 -3.5485414799999999  9.9380815400000007 16.8750855000000008
  5.3281302000000004  1.1621285200000000 16.6929703700000012
  3.5045098499999998  3.9600323999999998 16.8600856400000012
  1.7298807500000000  7.1348450100000003 16.8433950299999999
  0.0560259100000000 10.1016150800000002 16.9941010800000001
  8.6150580199999993  1.2178109900000000 16.7656218999999993
  6.8729091699999998  4.0158863000000000 16.7613530600000011
  5.1603959100000001  6.8849767300000000 16.9614832000000000
  3.4693801099999999  9.9465339400000001 16.8011695699999990
 12.1261185999999999  0.8206254900000000 16.8872617699999985
 10.5428945200000008  3.9318349700000002 16.7356036500000016
  8.5024290300000001  6.8546767400000004 16.8481054999999991
  6.9259527299999997 10.0599525199999995 16.8262310900000003
  6.8804034300000003 11.8840487299999999 13.9797904400000004
 12.0324745100000001  2.9310850099999999 13.9916503700000003
 10.3507471199999994  5.9003119100000001 13.9107188799999992
  8.5343409599999998  8.8613311699999997 13.9362170800000005
  3.4531078200000000  0.0115304100000000 13.9297307400000001
  1.7902847900000001  2.9460892300000001 13.9234881599999998
  0.0882460200000000  5.9027387500000001 13.8286912999999991
 -1.6226456100000000  9.0414240600000007 13.9818014500000007
  6.8740204800000004  0.0504610500000000 13.9434781200000000
  5.1423131000000000  3.0785479900000001 13.7824374400000007
  3.5068593400000001  6.0249453400000004 13.8936515299999996
  1.7859734000000000  9.0890441200000005 14.0023387199999991
 10.3357080200000002  0.0381629600000000 13.9707990199999994
  8.6439570700000008  2.9285984400000000 13.8342870399999995
  6.9249172600000000  6.0211337599999997 14.0258246700000004
  5.0931962500000001  8.9037896199999995 14.0040928900000008
