Sc  F  C 
 1.0000000000000000
    13.1286234000000004    0.0000000000000000    0.0000000000000000
    -6.5643117000000002   11.3697213799999997    0.0000000000000000
     0.0000000000000000    0.0000000000000000   26.8280942399999986
 Sc  F   C  
  32  32  16
Cartesian
  0.0410361100000000  1.8241788000000001 12.0894587799999993
 -1.5380333200000000  4.8058302599999996 12.2354167799999995
 -3.4079290499999999  7.4570882000000003 12.3030255900000007
 -4.9177382999999999 10.4822890100000006 12.1248189499999999
  3.3810900500000001  1.8833993600000001 12.1495720600000006
  1.6613859300000000  4.7666946399999999 12.2228521499999996
 -0.0278999900000000  7.4787378699999998 12.2311408200000002
 -1.5413212700000001 10.4052644700000005 12.0347959899999992
  6.5619318800000004  1.8018106000000000 12.1303536899999997
  4.8771827300000004  4.6996884899999998 12.0603548499999995
  3.3275675200000001  7.5342601599999997 11.9601349199999998
  1.6729712500000000 10.3526072700000000 12.1888752900000004
  9.7251351600000007  1.8121033700000000 12.1793702100000001
  8.2111376800000002  4.7869905499999996 12.1132549500000000
  6.5543284699999997  7.5707063799999998 12.1276881700000008
  5.0001176300000001 10.4030588900000005 12.0941616199999995
  1.6184484900000000  1.0432997100000001 14.7148664000000000
 -0.0388787100000000  3.8572791700000000 14.6222391500000004
 -1.6516833700000000  6.7288151699999998 14.7706817400000006
 -3.2620327599999999  9.5157234400000004 14.7044089400000004
  4.9576601399999998  0.9320332000000000 14.7408122000000006
  3.3301462000000002  3.8237302799999999 14.6597409400000007
  1.6432636500000000  6.5089328899999996 14.7332965700000003
  0.0050031200000000  9.4411784799999996 14.7504179000000004
  8.2603810099999997  1.0415493100000000 14.7955770399999995
  6.5615359700000004  3.8304711299999998 14.6301606300000007
  4.8891017699999999  6.5803077999999999 14.5759474600000001
  3.2371751099999999  9.3772086899999998 14.7498222999999999
 11.5397220199999992  1.0039748300000000 14.6364889100000006
  9.8427379399999992  3.7375118100000000 14.6161767400000002
  8.1307575599999993  6.6728113100000002 14.7403997400000009
  6.4950764300000001  9.4566734399999994 14.6829408200000007
  0.0467441500000000  1.7787374600000001 15.8610266299999996
 -1.7688205200000000  4.7131262400000002 15.7175095500000008
 -3.2271733600000001  7.5177228300000003 15.9991087299999997
 -5.0952485400000000 10.4031153199999995 15.7903066699999997
  3.6338479600000002  2.0422331300000001 15.9070546400000001
  1.6096072800000001  4.7537367899999996 15.8797288800000000
 -0.0431923100000000  7.6226265199999999 15.8672130899999999
 -1.4022673900000000 10.5401340000000001 15.8437643500000007
  6.6440358100000001  1.8638339399999999 15.7984495700000007
  5.0153480300000002  4.7711555900000002 15.8216881399999991
  3.3811076400000002  7.6170793600000000 15.7042130800000006
  1.7437331500000000 10.4766748300000003 15.9011653299999995
  9.9260992800000007  1.9039077300000000 15.7724902799999995
  7.7818202300000001  4.9860516500000003 15.9174160100000002
  6.5287872900000004  7.5910379199999998 15.8201456100000009
  4.7538677199999997 10.4059805799999996 15.7797231900000003
  1.5856324799999999  0.7898484800000000 10.9666646500000002
  0.0945083400000000  3.7873257699999998 11.1180193500000009
 -1.6947137000000001  6.6816973500000003 11.1136425600000006
 -3.4127802800000002  9.7557830800000005 10.9575561599999993
  4.9308169099999999  0.9074427600000000 10.9622456100000001
  3.2490950500000002  3.9698936599999999 10.8100922100000005
  1.6686617900000000  6.6692306200000004 10.8746200799999997
 -0.0098736000000000  9.2322543600000007 10.8190956499999995
  8.1810217699999992  0.9798213300000000 11.0328225700000004
  6.4404330700000001  3.9179558800000001 10.9312680600000007
  4.8519546099999999  6.6542074299999996 11.0604468300000001
  3.4003038100000000  9.4226076200000008 10.9373404099999991
 11.5253246399999991  1.0839775199999999 10.9813563799999994
  9.5750901299999995  3.8513007500000001 10.8424272599999991
  8.1507227899999997  6.3846188399999999 11.0079211400000005
  6.5590324799999999  9.3967577999999996 11.0968298500000007
 -0.0015333100000000  0.1408943100000000 13.4124535300000005
 11.4562661099999996  2.8444299700000002 13.3026416399999992
  9.7735123999999995  5.7131342500000004 13.5370148300000004
 -4.9011974399999998  8.7240720100000004 13.4308903999999991
 -3.2975458500000001 11.3508098099999994 13.4946860300000004
  1.6814659300000001  2.8547107399999998 13.4807013199999997
  0.0416102300000000  5.7072884699999999 13.4474275599999995
 -1.6060789700000000  8.4919084399999996 13.3823050000000006
  0.1455371900000000 11.3393579199999994 13.3601770200000001
  4.9638822800000000  2.8311398500000000 13.3363779200000003
  3.2902969700000000  5.6079259700000001 13.3376990099999997
  1.6708292800000000  8.5217722100000000 13.5453443799999995
  3.2731299500000000 11.2841905499999999 13.4006727199999993
  8.1664049900000002  2.8090521100000001 13.4356221700000003
  6.5928299800000003  5.8092324099999999 13.3998656700000005
  4.9289231300000003  8.5379623500000008 13.4359872100000004
