Sc Cl  C 
 1.0000000000000000
    13.7939866799999997    0.0000000000000000    0.0000000000000000
    -6.8969933399999999   11.9459428800000005    0.0000000000000000
     0.0000000000000000    0.0000000000000000   27.8102210700000008
 Sc  Cl  C  
  32  32  16
Cartesian
 -0.0814214100000000  1.8711099600000001 15.0728880299999997
 -1.5561635500000000  4.9551167700000001 15.1493112300000004
 -3.4944649999999999  7.9316031699999998 15.1517754300000007
 -5.2698270300000001 11.0428965100000003 15.1981832899999993
  3.3830667100000000  2.0437255799999998 15.2725431100000009
  1.8845806100000000  4.9750182100000000 15.0561255200000002
 -0.0283376500000000  8.0125210800000009 15.2223002199999993
 -1.7213649200000001 10.9231040900000007 15.1508416900000000
  6.9321295899999997  1.9554408999999999 15.1458600699999995
  5.2793397300000002  5.0081005100000002 15.0516056999999996
  3.4430513700000001  7.9937917399999998 15.0924600899999994
  1.6724748500000000 11.0413017700000005 15.1801018499999998
 10.4317389200000008  1.9910931800000000 15.2078139700000001
  8.5974561900000008  4.9309516400000000 15.2523562800000008
  6.8929907600000000  7.9588764599999999 15.0931926199999999
  5.1918780800000004 10.8432394700000003 15.0812759399999994
  1.7526768800000001  0.9454425200000000 12.5611663300000007
  0.1117308400000000  4.0914950100000000 12.6168296400000006
 -1.7086350600000000  6.9178527499999998 12.6720216400000005
 -3.5219033099999999  9.9572162300000002 12.6138859500000002
  5.0813415500000003  0.8587485900000000 12.7786654300000002
  3.5193353900000002  3.9249346200000002 12.6775563400000006
  1.7854894100000001  7.0110734099999998 12.7113023700000003
 -0.0134388500000000  9.9819329999999997 12.6413273000000004
  8.5868195299999996  1.0816639200000000 12.7952013999999998
  6.9390537200000004  3.9630790400000002 12.5539490600000008
  5.2477808799999996  6.9989834699999998 12.6147360699999993
  3.4492080100000000 10.0684707800000002 12.5574731800000006
 12.0948399099999993  0.9509213100000000 12.6532530100000002
 10.3100355100000005  3.9587873199999999 12.7652597799999992
  8.7267678600000007  6.9997261899999996 12.6974862500000008
  6.9714808599999998  9.9544887299999996 12.5449282499999999
  0.0328731500000000  1.9754335400000000 10.9884860500000006
 -1.6541695400000000  5.2571261399999996 10.8679127900000001
 -3.5464134700000001  7.8982198900000000 11.0120332399999992
 -5.1864971700000000 11.0868581600000002 10.8719819399999995
  3.2751072400000001  2.0472772500000000 11.0076615300000000
  1.8903835800000000  5.1727547100000004 10.9778498300000003
 -0.0405295700000000  8.1086682099999994 10.8728649399999995
 -1.8382105799999999 10.9572677499999998 10.9648735300000002
  6.8155843300000001  1.8362353800000000 11.0171924600000004
  5.0700242900000001  4.8344358999999999 10.9882899399999996
  3.4318691100000001  7.9429773199999998 11.0262859500000001
  1.7595666299999999 11.0364494700000009 10.9282158099999993
 10.3020025200000003  2.1770807500000000 11.0705206900000004
  8.6754921100000004  5.0370754299999998 11.0522898299999994
  6.9113011400000000  7.9282527900000002 10.7814080600000004
  5.1821543500000002 11.1413498299999993 10.8541608600000004
  1.6652671500000000  0.9473366100000000 16.8928280599999994
  0.0091956400000000  3.9933701699999999 16.8464494000000009
 -1.8068284600000000  6.8753524500000003 16.9190488300000013
 -3.5412122099999999  9.9859350899999999 16.8464545399999999
  5.0070079900000000  0.7598770300000000 16.9418366599999999
  3.4320699600000002  4.0171778700000003 16.9351876300000015
  1.7548557899999999  6.8969722999999998 16.7016530100000011
 -0.0970225900000000  9.8612224600000005 16.8683193100000004
  8.5457142200000007  1.1169930699999999 16.8600213299999986
  6.8856512700000003  3.8631429399999999 16.8303784900000011
  5.1109431100000000  6.9004455099999999 16.7944605299999985
  3.4964552000000002  9.9562581899999998 16.6966238800000006
 12.1389128700000004  1.0463334300000000 16.9672088899999984
 10.3944937599999996  3.9330837800000000 16.9254053599999992
  8.6173645099999998  6.9263145100000001 16.9678238899999982
  6.9674182299999998  9.8862053099999994 16.8192902500000017
 -6.8738105599999999 11.9087521899999995 13.8681698499999992
 -1.6607000100000000  2.9253448000000000 13.9109900100000008
 10.3694616600000007  5.8817092600000001 13.9078977600000009
  8.5533252100000006  8.8974439499999995 13.9384766399999993
 -3.5166723100000001 11.7773783000000005 13.9410797100000003
  1.7521129799999999  2.9209618599999998 13.8569132199999991
  0.1085971500000000  5.9594165099999996 13.8601685000000003
 -1.7711053800000001  8.8964394599999999 13.8359663600000005
  0.0377500200000000 11.9271238799999999 13.9583387800000001
  5.0335102799999998  2.8263273799999999 13.9924585700000002
  3.5460873099999999  6.0127185900000004 13.8379706200000001
  1.7726095500000001  8.9987870099999991 13.9179526399999993
 10.4116574600000007  0.0351251200000000 13.9623761599999998
  8.5185765599999996  2.8783243299999999 13.9692545500000005
  6.8325692199999999  5.9163927699999999 13.9471159799999995
  5.1916440899999996  8.9305492399999995 13.8746326399999997
