Sc  F  C 
 1.0000000000000000
    13.1286234000000004    0.0000000000000000    0.0000000000000000
    -6.5643117000000002   11.3697213799999997    0.0000000000000000
     0.0000000000000000    0.0000000000000000   26.8280942399999986
 Sc  F   C  
  32  32  16
Cartesian
 -0.1164160000000000  1.8415569899999999 12.1823920700000006
 -1.6322588099999999  4.7045103499999996 12.1130197000000006
 -3.4133959100000002  7.5842782199999998 12.0776874400000001
 -4.8590178599999998 10.5410228200000002 12.1102301099999998
  3.1679816600000001  2.0734826300000000 12.1574909499999997
  1.6772970899999999  4.5900310900000001 12.3027359799999996
  0.0378800000000000  7.5399552099999996 11.8970518799999994
 -1.6964599199999999 10.6012065599999996 12.0288628000000006
  6.6111650600000003  2.0506183400000002 12.0179178600000007
  5.0214926000000002  4.7904781700000001 12.1837274999999998
  3.3448216300000002  7.5338551799999998 12.1184907899999992
  1.6608563500000000 10.3459330299999994 12.1476946800000007
  9.7565273099999992  1.9791885199999999 12.1704036999999996
  8.2720922899999998  4.7650440300000003 12.1788979600000005
  6.5608191500000004  7.5898933299999998 12.3082882999999992
  4.9137710200000004 10.4200499700000009 12.1568285100000004
  1.5616162400000000  1.0214401000000000 14.8192577199999995
  0.0177243900000000  3.9185324000000001 14.8145614900000009
 -1.6832608200000001  6.6678412399999996 14.6148978899999999
 -3.2185122000000002  9.4173482499999999 14.6268273900000008
  4.9606814100000003  0.8867455300000000 14.6091256900000008
  3.3348415899999999  3.7164067200000002 14.6923331800000003
  1.5106917500000001  6.5109940599999998 14.5141152600000005
  0.0815938900000000  9.3851846499999994 14.5243512100000007
  8.2528616899999996  0.9392150000000000 14.5889127999999992
  6.6486961700000000  3.8369370300000001 14.7159349099999996
  4.9198183000000002  6.6490247000000000 14.8402148100000009
  3.2487497599999999  9.4151567200000006 14.7009886800000000
 11.3678594700000009  0.7580516600000000 14.6556604299999993
  9.8438915199999997  3.8862284100000002 14.6587001099999998
  8.0269347000000000  6.6406668700000004 14.8089031500000008
  6.5232016000000002  9.5410667500000006 14.9108185199999994
  0.2251067400000000  2.0935545900000001 16.0926155900000012
 -1.6617576199999999  4.6617313100000004 15.7987834100000004
 -3.2581281700000000  7.5144550299999997 15.9227672200000008
 -4.8270604500000003 10.4754631499999995 15.9871826000000006
  3.3475753899999998  1.9568464900000000 15.9129104800000007
  1.7064609200000000  4.6519319899999996 15.9498512500000000
 -0.0634529200000000  7.3132184599999999 15.7170788600000009
 -1.6403836300000001 10.3667750900000009 15.6586131500000008
  6.3185778399999997  1.9668152699999999 15.8071898999999991
  5.1864837300000000  4.7829528699999999 15.7911789999999996
  3.3295489100000002  7.6165054000000003 15.9126026500000002
  1.4339648199999999 10.3764716600000000 15.8406309699999994
  9.9082432199999992  1.8202556299999999 15.6407594299999992
  8.2339461099999998  4.5580057099999998 16.0365253500000016
  6.6011408700000000  7.7413967799999996 15.9527905699999994
  4.8849223700000000 10.3704736499999992 16.0467517899999983
  1.6205020699999999  1.0596131499999999 10.9441568599999997
  0.0121265800000000  3.7328804899999999 11.1169083799999999
 -1.6545789300000000  6.4733287500000003 10.7889124699999996
 -3.5174248800000001  9.5376749200000006 11.0129145899999994
  5.0667000199999999  0.9865157900000000 11.0937954899999998
  3.5613098399999998  3.9153968300000002 10.9767362599999991
  1.8624081800000001  6.3890006799999997 10.9762532200000003
 -0.0120971100000000  9.4372588499999992 10.7701210100000004
  8.4914307299999994  0.9798263699999999 10.7856370500000001
  6.4756089499999998  3.7164623699999999 10.8136004799999998
  4.9377490499999999  6.5755128500000000 11.0722670500000007
  3.3077634499999999  9.5024718400000001 11.0092237799999992
 11.6611410200000005  0.8098593600000000 10.8932212100000001
  9.7588086900000004  3.7605587699999998 11.0202954900000005
  7.9676819400000003  6.7379325500000000 10.9801589800000006
  6.5184324499999997  9.5014191100000005 11.1294949400000007
  0.0209008800000000  0.0814049300000000 13.4812525200000000
 11.3376959599999996  2.8757946900000002 13.3361180800000003
 -3.2211920900000002  5.7502148999999996 13.3419842099999997
  8.1158039599999992  8.5397538700000002 13.4288168199999998
  3.3475145199999998  0.1154711900000000 13.4118348199999993
  1.6673963300000001  2.8504753900000002 13.4751835199999999
  0.0339673200000000  5.6359612700000001 13.3596813399999998
 -1.6495786299999999  8.5217883000000008 13.2648270299999993
  0.1931133100000000 11.2262195699999996 13.3923505800000004
  5.0009046899999996  2.7923127999999999 13.2796827700000009
  3.3029153700000000  5.6108409400000001 13.4692627100000006
  1.6211821200000001  8.4000339200000003 13.2805166099999994
  3.2089626099999999 11.2771988000000007 13.4146802800000007
  8.2032082600000003  2.9638133700000000 13.4134070100000002
  6.5116286900000002  5.7294829500000004 13.4699663199999993
  4.8421491899999998  8.5826389200000008 13.4931392399999996
