Sc  F  C 
 1.0000000000000000
    13.1286234000000004    0.0000000000000000    0.0000000000000000
    -6.5643117000000002   11.3697213799999997    0.0000000000000000
     0.0000000000000000    0.0000000000000000   26.8280942399999986
 Sc  F   C  
  32  32  16
Cartesian
 -0.1117808000000000  1.8852293600000001 12.1635979600000006
 -1.6901464500000001  4.6870291699999997 12.1721843199999995
 -3.1631248400000000  7.6001643500000000 12.2922128700000002
 -4.9652240299999999 10.4152524900000003 12.1655478400000003
  3.2318004000000000  1.7942871899999999 11.9936796099999992
  1.6114768900000001  4.7797304499999997 12.1496719500000001
 -0.1077060500000000  7.6835072899999997 12.2213262399999998
 -1.5854528400000001 10.4863272399999996 12.1971919399999997
  6.6554374999999997  1.9692178499999999 11.9951641700000007
  4.9053678600000001  4.8136342000000001 12.0750097699999994
  3.1769719900000002  7.5739191600000000 12.2368808300000005
  1.6914523400000001 10.3485397700000004 12.0824767200000007
  9.8293600300000001  1.8056533600000000 12.1048200000000001
  8.2564145199999999  4.7231083800000002 12.1535587500000002
  6.5614007599999997  7.5218088999999999 12.2163490600000006
  4.8316263199999998 10.4121160699999997 12.1674687099999996
  1.6742149700000000  0.9073226800000000 14.5323589200000001
 -0.0341029900000000  3.7645193500000000 14.6209018200000003
 -1.4321469499999999  6.5422530400000003 14.7608951099999999
 -3.3490721200000002  9.5769845500000006 14.7760309599999999
  5.0076688200000001  0.9419564900000000 14.6276965899999993
  3.3479989099999998  3.8190507199999999 14.4874481500000005
  1.7483099499999999  6.5161375599999998 14.8258171099999991
  0.0744413600000000  9.5132501499999993 14.7363342300000006
  8.2300816900000004  0.9940069100000000 14.5526736099999994
  6.5101718300000000  3.8064140800000001 14.7711278000000004
  4.9745634200000000  6.6283690499999999 14.5942676000000002
  3.2280368699999999  9.4572911200000007 14.6735952399999992
 11.5651666899999999  0.9232108000000000 14.7190186500000006
  9.8238919500000002  3.7543621400000000 14.6614061899999992
  8.3333769100000001  6.7872753399999999 14.7077538400000005
  6.5905613699999996  9.4635838999999997 14.7526025199999999
  0.0203219000000000  1.9245379100000000 15.7853077499999994
 -1.8108516200000000  4.6266794200000003 16.0031957899999995
 -3.3936344100000002  7.7143916800000003 15.8815007999999995
 -4.8944234299999998 10.4482580800000004 15.8787452099999999
  3.2757477700000002  1.8872568500000000 15.5990331700000002
  1.8696878800000001  4.7001865000000000 15.7968375400000003
  0.0530168700000000  7.6471538700000004 16.0429078199999999
 -1.6718607599999999 10.5438459699999996 15.9495971200000000
  6.5544995300000002  2.0074357699999998 15.7830966900000007
  4.8254018099999998  4.6666260800000003 15.7682285499999999
  3.2587761000000000  7.4903314200000004 15.9817976000000002
  1.9750427900000000 10.5303965799999997 15.9672021199999996
  9.8943932900000000  1.7648207199999999 15.8298773500000003
  8.0657439300000000  4.5847345900000001 15.8323683800000001
  6.5282755600000000  7.3109288899999996 15.8780951199999993
  4.9392444299999996 10.6651283299999999 15.8727958600000001
  1.4528417300000001  0.7127904400000000 10.8652650499999996
 -0.1844635900000000  3.8640346100000000 10.8712399400000006
 -1.7200243000000000  6.5476235200000001 11.0203939200000001
 -3.0586138300000001  9.3749374200000002 11.0541377399999998
  4.8746381599999999  0.9452034800000000 11.0521252699999994
  3.1363433800000000  3.9280107100000001 10.9837726500000006
  1.5740454600000000  6.6658941399999998 11.1020068300000005
 -0.0744582900000000  9.4114532299999993 10.9503973000000006
  8.0403530799999992  0.8331570000000000 10.8790741099999995
  6.7465800600000003  3.9434710300000000 10.9110808099999996
  4.7279398400000003  6.8116982500000001 11.0342169099999996
  3.3073693300000002  9.4684273599999997 11.0307204199999997
 11.4857141899999995  0.9466134500000000 11.0055208600000007
  9.6513258799999999  3.6594453100000002 10.9930949400000006
  8.2063832399999992  6.8077864400000001 11.0027766499999995
  6.5975918599999996  9.5148428599999999 10.9212876600000008
 -0.0308031700000000  0.1120763500000000 13.3694842400000002
 11.4469562499999995  2.8433318700000001 13.3537762000000004
  9.7927398700000001  5.5551389000000002 13.4869217700000004
 -4.8196663199999996  8.6046154900000005 13.4558319300000004
  3.2183987500000000  0.0542117100000000 13.4228975899999998
  1.5742092700000001  2.8823927299999998 13.2496170600000003
 -0.1097567400000000  5.5644209800000004 13.5539663400000006
 -1.6916916399999999  8.5812978100000006 13.5541915999999993
  0.0719723900000000 11.3239714800000009 13.4373967000000007
  4.9892853800000001  2.8153402399999998 13.3384817299999998
  3.2484414099999999  5.7247453600000000 13.3587564699999994
  1.5962375900000001  8.4822493699999999 13.4530554400000000
  3.3673585500000001 11.3293039300000000 13.3306738500000002
  8.3031086300000005  2.8239973799999998 13.2930210899999999
  6.4819328699999996  5.7149531800000002 13.3070293300000007
  4.8358639400000003  8.5691888600000006 13.4532816200000003
