Sc  F  C 
 1.0000000000000000
    13.1286234000000004    0.0000000000000000    0.0000000000000000
    -6.5643117000000002   11.3697213799999997    0.0000000000000000
     0.0000000000000000    0.0000000000000000   26.8280942399999986
 Sc  F   C  
  32  32  16
Cartesian
 -0.0741065000000000  1.9743181999999999 12.1334349499999998
 -1.6024757000000001  4.8272331299999998 12.2333772199999995
 -3.0760965200000001  7.4873397800000001 12.2240144300000004
 -4.9250857899999998 10.4489240199999998 12.2074290199999993
  3.3542978699999999  1.9606421500000000 11.9198793799999994
  1.6378750200000001  4.7405661900000000 12.2691069099999996
  0.0711847300000000  7.6559131499999999 12.1278244199999996
 -1.7396390799999999 10.2799597200000008 12.3188628900000001
  6.6103923699999996  1.7905972600000000 12.1125481900000000
  4.8985606300000004  4.5642800599999998 12.1497402399999999
  3.4183816199999999  7.5621920999999999 12.1558183999999994
  1.7127644099999999 10.4802774999999997 12.0336354300000004
  9.8981190800000007  2.0681811600000000 12.1503097400000009
  8.1932412200000009  4.6758392500000001 12.1012515700000005
  6.7472677900000004  7.4748356899999999 12.1040362600000009
  4.9887505799999996 10.4020406300000001 11.9916650100000002
  1.5793755899999999  0.9010240300000000 14.5689627000000002
 -0.0747495800000000  3.7056121100000001 14.9107793300000004
 -1.7789397700000000  6.6127292799999999 14.8879569600000004
 -3.2747661300000002  9.5248696299999995 14.8477234199999995
  4.9345039000000002  1.0409907800000000 14.6481686500000006
  3.1613669999999998  3.9182226000000000 14.6987739600000005
  1.4884463600000000  6.7709172600000000 14.6003086199999998
  0.0205054300000000  9.5552519100000008 14.6913145000000007
  8.1801462399999991  0.8652679400000000 14.6799788200000005
  6.4751007600000001  3.8239126099999998 14.6772592100000008
  4.9826491400000004  6.6543247000000001 14.6625207900000003
  3.3731263700000000  9.4887382500000008 14.6332102299999995
 11.4760247900000003  0.9348864600000000 14.5466666599999996
  9.8898053800000003  3.7442368699999999 14.6110143000000008
  8.0918008500000003  6.4963381499999997 14.7703802700000004
  6.4855067799999997  9.4122360100000009 14.6356662100000001
  0.0146750700000000  1.7420167600000001 15.7569929399999999
 -1.6700149200000001  4.5077648799999999 15.9319917499999999
 -3.3235052100000000  7.5004059800000000 15.8563198100000005
 -5.0684778000000001 10.4872870299999992 15.9314105099999992
  3.0689962999999998  1.8518180300000000 15.6830229200000009
  1.6153756500000001  4.7233638400000002 15.9907567700000008
 -0.1090042600000000  7.6726845800000003 16.0517985100000011
 -1.4497179300000000 10.6586573300000005 16.0315256200000000
  6.5009037100000002  1.8222096299999999 15.7761227399999999
  4.7638585100000004  4.9630544499999996 15.7922267099999996
  3.2930617999999998  7.6110631299999998 15.6331617200000004
  1.2689976199999999 10.6170284000000006 16.0360383999999989
  9.7775143000000000  1.7614773900000000 15.6061033200000008
  8.0206365799999997  4.7352607799999999 15.9987519799999998
  6.4726960599999996  7.4436629600000002 16.0044388799999986
  4.9324497500000000 10.4061060100000002 15.7759641300000002
  1.5032666699999999  1.0440077699999999 11.1178074999999996
  0.3090328200000000  3.7586892900000000 10.9682620199999992
 -1.4966724300000001  6.6935714700000002 11.0361186199999999
 -3.1656788499999999  9.2906002000000001 10.8470144699999995
  4.9716877300000002  0.8505273900000000 10.8211649500000000
  3.2730396399999999  3.6854792700000001 10.7467192399999991
  1.6500332900000001  6.5387156099999997 11.0167864299999998
 -0.0547866100000000  9.5472724800000002 11.0846700200000008
  8.2556676400000004  1.3332051100000000 10.9423228300000002
  6.5143294000000003  3.6811316700000001 11.0370721599999992
  4.9385401199999999  6.6200104000000000 11.0574512800000004
  3.3526091800000000  9.5691616199999991 10.6863620299999997
 11.5078555100000006  0.9192158800000000 10.8262645400000004
  9.8979144199999993  4.1719467300000002 10.9940475200000005
  8.3340437600000001  6.4050342799999997 10.9702629799999993
  6.7074620300000003  9.2989958700000006 11.0592690099999995
  6.5458253900000001 11.3228127000000001 13.3817237200000001
 -1.6825363099999999  2.9253273800000001 13.2982057299999994
 -3.1179638399999998  5.7017920799999997 13.4401376199999998
  8.1530297199999993  8.4093217199999994 13.4252403699999991
  3.3952768099999999  0.1591022500000000 13.3062945500000005
  1.5086731600000001  2.8157790299999998 13.5254010200000003
 -0.0313387600000000  5.7187713799999997 13.6271348200000002
 -1.4740829499999999  8.4351312299999996 13.4684332199999997
  6.6633804200000002  0.0338101200000000 13.3018861899999994
  4.9298706499999998  2.7801398300000000 13.4094476900000004
  3.2894179900000000  5.8379603400000004 13.4360773200000008
  1.5850557199999999  8.7511240800000003 13.5327566800000003
  3.2767717699999999 11.3062284599999998 13.3335593499999998
  8.1933132799999999  2.8607884900000000 13.4324177000000002
  6.5785096500000000  5.5651928100000001 13.5261468499999999
  5.0159603400000004  8.6136448100000003 13.2640632200000006
