Sc Cl  C 
 1.0000000000000000
    13.7939866799999997    0.0000000000000000    0.0000000000000000
    -6.8969933399999999   11.9459428800000005    0.0000000000000000
     0.0000000000000000    0.0000000000000000   27.8102210700000008
 Sc  Cl  C  
  32  32  16
Cartesian
  0.1397769800000000  1.9919749600000001 15.2156593400000002
 -1.8578644700000000  5.0063327199999996 15.2096779800000004
 -3.3925257400000000  7.9480976800000001 15.1430850499999998
 -5.1760581099999996 10.9197936400000000 15.2574365000000007
  3.5302246099999999  1.9876340699999999 15.1783807100000008
  1.6799707300000000  5.0623245399999997 15.2783581900000005
  0.1082295700000000  8.0544211099999998 15.2761137900000001
 -1.8625859800000000 10.9071695900000005 15.1440753000000008
  6.7800181999999998  1.9182033100000000 15.0835019399999997
  5.1351063300000002  5.0331441200000002 14.9850686500000005
  3.4805089100000002  8.0093675500000003 15.1205834600000006
  1.7426325000000000 11.0738474399999998 14.9930627600000008
 10.2825519900000000  2.0023881299999999 15.0546356699999997
  8.5556737799999993  4.9739287499999998 15.1060519499999995
  7.0192539900000002  8.0044327299999996 15.2477613900000009
  5.1816025899999998 10.9779523000000001 15.1152040499999991
  1.6981630999999999  0.9280122900000000 12.5989553599999997
  0.0083898000000000  3.9619774699999999 12.6817502199999996
 -1.6752570400000000  6.9753834000000001 12.6805535999999996
 -3.4431971400000001 10.0014757099999994 12.7301864299999998
  5.1386834600000002  1.0332939699999999 12.6217832199999993
  3.3231684200000000  3.9704159200000002 12.5295873100000001
  1.6273250600000000  7.0110805000000003 12.7517700600000001
 -0.0688942000000000  9.9217969200000002 12.6284599600000007
  8.6764113199999997  0.9143726100000000 12.5091851900000002
  7.0262344600000004  4.1216840299999999 12.6700987600000001
  5.1684547399999996  6.9757449700000000 12.6921872100000002
  3.5216798499999999  9.8776439299999996 12.6480565899999995
 12.1264169600000002  0.9872742600000000 12.7727842000000003
 10.3752951699999993  3.9090101100000001 12.6013911699999994
  8.6475343299999992  6.9093010300000000 12.6705247100000005
  6.9422800300000000 10.0368423799999995 12.7142277200000002
 -0.0558514400000000  1.9835615200000001 10.8579618900000003
 -1.6739554100000000  4.7822031300000001 10.9089701100000003
 -3.3772281300000002  7.9072620699999998 11.0287559500000008
 -5.0924268699999997 10.9442834599999994 11.0377564699999997
  3.5165633800000000  1.9423305200000001 10.8589222700000008
  1.6236515300000001  5.1309532500000001 11.0339592399999997
  0.1000225500000000  7.9075382799999998 10.9657166299999993
 -1.7409842099999999 11.0448260999999999 11.0593039300000004
  6.9121940899999998  2.0078109300000002 11.0219260000000006
  5.0894050799999997  4.9589186099999996 10.8205598100000007
  3.3975677499999999  7.9842021200000000 11.0413971600000007
  1.6098255699999999 11.0319318800000001 10.8377082900000001
 10.2404313200000008  1.9548345000000000 10.8129196299999997
  8.7243697900000008  5.0082976600000002 10.9359166299999995
  6.8931382799999996  7.8906343000000003 11.0853091199999998
  4.9859599100000001 10.9446720000000006 10.8876247700000004
  1.6697200999999999  0.7534488700000000 17.0014742000000005
 -0.0710424000000000  4.0967577400000001 16.9433678100000016
 -1.8525393100000001  7.1823488700000002 16.9133198900000004
 -3.3742975199999998  9.8924878799999991 16.9818860500000000
  5.2094845400000001  1.0944143000000000 16.8622486599999988
  3.4353159000000000  3.8971971100000000 16.7765579699999989
  1.6439470300000001  6.8911881499999996 16.9858432199999996
  0.1249191800000000 10.1008772800000006 16.8915080599999996
  8.6011331000000002  0.9487818300000000 16.7370326899999995
  6.7719647299999997  4.0873188400000000 16.6566680299999987
  5.2229720100000003  6.7684258699999997 16.7026115600000011
  3.5044595300000001  9.9297906200000003 16.7590250300000001
 12.1461416100000008  0.8618034600000000 16.7688804299999994
 10.4499981200000001  3.8696896399999998 16.8430787500000001
  8.6716521600000007  7.0015786000000002 16.9824092200000010
  6.9804597399999997  9.9014096800000004 17.0651341899999984
 13.7230602600000005  0.0106309700000000 13.8747270000000000
 -1.6542270800000001  2.9636681700000000 14.0889147599999998
 -3.3865222400000001  6.0551353900000002 13.8814709799999996
  8.5525927700000004  9.0625104899999993 14.0271671500000004
  3.4257514400000000  0.0411984500000000 13.8640928999999993
  1.7413466500000001  2.9955912699999998 13.8405008400000007
  0.0068395100000000  5.8841241899999996 14.0360437099999995
 -1.7382672400000001  8.9287552100000003 13.9427268800000004
 -0.1348688900000000 11.8799973300000001 13.9101881800000005
  5.1026212800000001  3.0709643000000000 13.7680045900000003
  3.4551373900000000  6.0658541100000001 13.8899814599999996
  1.6384842300000000  9.0110852399999999 13.8792874600000005
  3.4852828499999999 11.9353929200000000 13.7915249800000002
  8.6252833300000002  3.0422361400000000 13.8897845499999999
  6.9951191599999998  6.0297729699999998 13.9262902200000003
  5.2031213100000002  8.8543070299999993 13.7691654000000003
