Ca Si  O 
 1.0000000000000000
    11.1219476799999999    0.0000000000000000    0.0000000000000000
     0.0000000000000000   11.1219476799999999    0.0000000000000000
     0.0000000000000000    0.0000000000000000   11.1219476799999999
 Ca  Si  O  
  27  27  81
Direct
  0.6345667973866965  0.9568079392367722  0.9072673582294715
  0.1909462237283245  0.9918367247704944  0.2441666566084763
  0.9851865568207744  0.2347190649614709  0.1509150418876993
  0.0450575946244696  0.8263733551388186  0.2918201760503156
  0.3191244791038255  0.8697085185353075  0.0173234423990745
  0.0716748237751106  0.5708732681252822  0.4024083909375125
  0.4473262132806580  0.2605545209685791  0.1151078225536123
  0.5877081153469336  0.5451299245816988  0.4797260420128140
  0.6077156856396936  0.6888887801349556  0.7076302511432062
  0.0205287460945869  0.2389182782057468  0.7094589461330750
  0.0636914450940844  0.5070705655396501  0.6947097300137631
  0.7615890591925532  0.2686420342880088  0.7475741847762405
  0.4557757962767183  0.1309610665242762  0.3797344072742482
  0.9908400027646956  0.0952362401330771  0.4608468208510760
  0.7912073607237108  0.5423073056570969  0.8944765041369085
  0.5041674867868107  0.7826055867581639  0.4819999494908611
  0.5510811187344121  0.4095525676847995  0.8633984196192515
  0.2209677037430552  0.7125694381975369  0.5672646798496718
  0.7540427972953744  0.1940632560141660  0.9959866310034646
  0.2570964665785948  0.4705436620072285  0.9026843884595579
  0.3387692181626950  0.6599797743339141  0.2804780736030220
  0.1073817198535859  0.7149163122119632  0.9698765917949363
  0.7890357986291120  0.3832334050325257  0.4009613017708424
  0.0828416214955616  0.9614546999918991  0.7617106512049335
  0.2281915787613200  0.3326293349367743  0.1773246617178836
  0.2840594409269870  0.1202380759626087  0.6763429784449408
  0.8668433405182139  0.8309240571791647  0.9639647109003483
  0.2571014378301769  0.9384735587966728  0.4788770800978988
  0.3894941654679677  0.4161480203978086  0.3515517706517389
  0.7848807278330948  0.4736672480012961  0.6296902621286202
  0.3456819165687713  0.4292898552818942  0.6405715370169769
  0.5975398114802136  0.0508964145747537  0.6466285615542474
  0.7496266112627495  0.9181102387635039  0.4668532760082180
  0.8462501192057396  0.6761856175176684  0.1890635651686504
  0.7418884432299361  0.4196790116531100  0.1117962074426878
  0.2453128830039596  0.2505457407438550  0.4559764958362041
  0.6971894161976493  0.1108372207339857  0.2694684156255625
  0.4607289907697174  0.0200979465495921  0.1429401500295495
  0.2345433709143289  0.1302293259843855  0.9376529210574384
  0.8789399142363166  0.9971762113162539  0.1604608672282479
  0.6023216681774571  0.7928797116945258  0.2205060912496578
  0.9254283517722859  0.7201256938478963  0.6865307695818975
  0.6205673977779402  0.2520923178807833  0.5457694807282172
  0.9698071821895137  0.4813130895792884  0.1897232481856092
  0.3408926412068862  0.6413910859181455  0.7603132997295308
  0.0391050158221928  0.3378010154422880  0.4409017099422284
  0.0521153485591653  0.0233467048641969  0.9950508902232130
  0.8089702612231674  0.9696430778390426  0.7660271982146205
  0.4634961257073635  0.1572097163470922  0.8848403645790213
  0.6215124013242975  0.7027739497512183  0.0216860820550093
  0.0578036031545151  0.3788279626217410  0.9556461247442228
  0.8310757500344580  0.6960029441533930  0.4852360049944058
  0.4053100454793723  0.8956925042826671  0.7827815514413569
  0.3967029361173905  0.5921246349542258  0.0568030302045082
  0.9435961615672697  0.2494058630565325  0.9132633925499638
  0.8838066751272471  0.4337479872050612  0.0505915623944025
  0.3488960289732275  0.0889178252275324  0.2128787859933540
  0.1150003980238109  0.4692404442240641  0.0819483525928617
  0.1201924157945688  0.9410758026511413  0.4220837280543653
  0.5301088567969239  0.4346468567455085  0.3578059926640474
  0.1271561852914597  0.3339059296851502  0.8233131645158036
  0.9724586593271943  0.3595791668029138  0.2734296121054941
  0.4435254446368695  0.6282991775411768  0.9010212597943097
  0.2936993729860812  0.8262119175874417  0.8326374863867368
  0.1665092377057469  0.3849958643214908  0.4237393328575701
  0.4980186464966359  0.1923709238308519  0.5762034999970436
  0.5196729508441637  0.8257987480480576  0.7928954418530405
  0.1141665944251232  0.1201300040641802  0.5947895422935491
  0.3467109818304774  0.2673136743257904  0.3489793237365778
  0.2522227572644002  0.9165787623989253  0.6205241445624207
  0.4453641684457196  0.0108878492764138  0.9885666842122744
  0.7654761247716999  0.0531788313537544  0.8658021101210575
  0.7742119211263903  0.5416473708856721  0.4920701425202173
  0.2052002469049558  0.0217700673448951  0.0164357309762133
  0.3185452334370269  0.0395846143739457  0.8213601010214426
  0.6877384825101065  0.3717183095038620  0.5455574890818045
  0.1267629816794822  0.1278614655378418  0.8510152692967892
  0.5314486383197946  0.7886223953177237  0.0692549238821810
  0.6927257582639518  0.8882274197139542  0.3317983024354598
  0.5682123798661854  0.7035553470612982  0.3232571140812991
  0.0168640929985026  0.0162704748490599  0.1875948008415735
  0.5485122737063621  0.1303397212168867  0.2093132585209212
  0.7126297297956719  0.1617499085376025  0.6169411929835655
  0.9039565703117927  0.3967124596291933  0.7201533418830109
  0.3944280566872798  0.6682090667774118  0.6236108467289606
  0.1024922884729844  0.1958223507845165  0.3646433301689475
  0.2390221260238836  0.5246538868810791  0.6080511511631207
  0.8683908698264978  0.8766586294532902  0.5160275398813960
  0.4723717734662100  0.9372902300867504  0.6521595873934195
  0.9044262209656428  0.0602564927728558  0.0116445764470635
  0.4819549996300648  0.9035667186307066  0.2178546878400708
  0.8842986420162696  0.7090561326934780  0.3493856662343156
  0.4881110427953388  0.4464593174565266  0.6239031777211166
  0.1858547234237664  0.7016983045185481  0.3698638249663120
  0.9152881970759279  0.0584214589651801  0.7022924864181702
  0.3565473120441796  0.4907033459448893  0.7653690733779822
  0.3840614299670937  0.4464409402796256  0.0642277063831683
  0.5732004009930750  0.2422567510225871  0.9637858807118574
  0.2615366097460368  0.6652454410754789  0.0741899551895752
  0.8067486925994962  0.6334354173117275  0.7052028363794640
  0.7979789606419008  0.5341761399114943  0.2169447752697934
  0.8428773682200957  0.0266872933176754  0.3740017350989733
  0.5447592718760209  0.6070566994431320  0.0866431004465937
  0.6461189304929368  0.2167088930236722  0.3741806965594357
  0.5375051548525176  0.0652247862399583  0.7947483637146546
  0.0010609796358977  0.6085227484184677  0.2216698865103814
  0.2138569860634338  0.6460013063107666  0.8380117141496929
  0.6776118937829780  0.4503022468812765  0.7387030218433827
  0.3797310535451107  0.5350264244364796  0.4648587917112014
  0.8729824388096743  0.8537587914637628  0.1718648266469817
  0.6976126289419839  0.7557734779777349  0.5014901337856320
  0.0766845524308383  0.7283484505656297  0.7481139193778332
  0.6836021458428583  0.8998689984846251  0.6793345794627942
  0.3439427661468732  0.2178860150868827  0.9614507096836117
  0.2838845381081671  0.4567602416558031  0.2651835330338472
  0.9692594103265911  0.4671729799038219  0.5021574845243293
  0.7002299609810788  0.7068501935265352  0.1521080955129974
  0.6243960176586624  0.9784846245563348  0.5125345042083492
  0.0491307535084538  0.9032972406502096  0.9313289091106388
  0.6646888569071204  0.9710832797228192  0.1128496479314493
  0.9190963034632798  0.2785114783061091  0.5026575453194363
  0.6604731591400544  0.4784352626985204  0.0133607992300859
  0.2606065972790118  0.0834144546164598  0.4553310540299179
  0.6872749782617211  0.7250803763896144  0.8903484744679180
  0.2911143167686615  0.2973627466300039  0.5794513106359083
  0.3336640323055359  0.8648959226177551  0.3944370910761199
  0.4208193146256555  0.2812993146538521  0.7991309692979962
  0.9346622353468937  0.6981661318155022  0.0460974673457554
  0.0198419976742779  0.5342859534113542  0.8820641152305798
  0.6868980200057908  0.3351886969135607  0.2040294240981360
  0.8135574334944183  0.1438481708448389  0.1817364807096449
  0.1573330139959802  0.2458989179492346  0.0198208368122803
  0.1617423172413269  0.8534796191380752  0.1529845373270089
  0.9684378797581252  0.6905745972723367  0.5518410189104576
  0.8613164920049327  0.8224770771444592  0.7543746950983679
