Ca Si  O 
 1.0000000000000000
    10.2628755900000002    0.0000000000000000    0.0000000000000000
     0.0000000000000000   10.2628755900000002    0.0000000000000000
     0.0000000000000000    0.0000000000000000   10.2628755900000002
 Ca  Si  O  
  27  27  81
Direct
  0.5989910484727995  0.0217515381573480  0.6252000205724018
  0.9852085754456662  0.4493534730649502  0.0494648079427805
  0.0918458059570027  0.9977498645679286  0.1685467591252366
  0.4546658925249624  0.4858503093283624  0.5444793246295213
  0.5228814743919156  0.5829378839815011  0.0966577029313867
  0.7547524377619392  0.5776565493765281  0.8313395602606151
  0.3915693496192912  0.1576351224189399  0.4462943138921944
  0.1370905111010899  0.1993032909794827  0.6768907046645783
  0.6369175600617409  0.1573552953885121  0.2085928101950226
  0.7494992658290619  0.4584253330113690  0.2865245665518196
  0.3224672842399720  0.7237957972751767  0.9000870729643132
  0.0705889615095685  0.5834165626867936  0.5674928063704610
  0.8419065567177941  0.8695967130982244  0.8610237035914415
  0.8475470128932937  0.0150086765302004  0.3904178974852018
  0.0617036408993437  0.7463678744643147  0.1318582416918882
  0.2252772821540167  0.4636177938896753  0.7784080777305807
  0.0815589171533551  0.9155151446203977  0.6312666594451039
  0.2052287199166954  0.3192396537664742  0.2603194384041053
  0.6622922708546640  0.2912007803068380  0.7646542005874593
  0.8649916129403260  0.1696809061679369  0.9498990038911697
  0.4769651251321463  0.2957311479988427  0.0142179108301945
  0.2886591047529204  0.6279889016953386  0.3333458054712715
  0.5687149891680602  0.7230004129865907  0.6313739169082143
  0.2736123482521920  0.8612824887610276  0.4020009639423097
  0.3732151848096212  0.0176860557655849  0.9444718924045731
  0.9249821862061566  0.2965791335291827  0.5064256176957125
  0.8342413356683787  0.7414220705758355  0.3734070413689971
  0.7100176511055222  0.3886774710478587  0.0123877239751281
  0.6057668151076164  0.0963127450325060  0.9271308812582030
  0.5034543432480604  0.5276605949775525  0.8066885745031233
  0.2194891860712890  0.3795706306520666  0.5190054798277058
  0.3623288265935221  0.1177304099035658  0.1816000723828320
  0.1083743810636995  0.1034572056037172  0.4273407254662044
  0.0049279200119389  0.5043994477575071  0.3205174691199779
  0.9073701779132645  0.2275883956223618  0.1909693070731261
  0.8579961973406324  0.1060063498246109  0.6907689572801301
  0.7819165037739682  0.9258904638051838  0.1127124839286881
  0.6788635610850273  0.2561281959377236  0.4693105589911959
  0.0953748811837638  0.9311740346255137  0.9473257455710812
  0.1630455387796433  0.2350086210096989  0.9776456834161038
  0.6075831783516729  0.8148906694483276  0.9243481202523279
  0.3152862091744406  0.9882370278250641  0.6637852130486559
  0.2539171041437130  0.5193157330283881  0.0595545414772002
  0.8185269875224123  0.6775319537903509  0.0988682022988452
  0.9677142105938751  0.3989725105885260  0.7637789809746686
  0.3385886859415783  0.8286676288161066  0.1293446547567474
  0.3048060821323861  0.7133565457164428  0.6382741545052677
  0.0587783282287650  0.6847975480525142  0.8633142994184927
  0.8539408992290045  0.8039124753728014  0.6181026812973380
  0.5870744059170652  0.6952895431133254  0.3327584554691070
  0.3850893694795339  0.2414070684452290  0.7382668359911396
  0.4496664935212374  0.3913866181827115  0.2816699729670990
  0.5530506240892665  0.9261863185072480  0.3651704327052063
  0.7622789433034528  0.5376787949545825  0.5683082649548127
  0.4813821103720502  0.3745675026739752  0.7730704781933345
  0.7440611827586230  0.1597188161958417  0.5700550278228600
  0.4707714468163011  0.1700895528443213  0.8507084387252131
  0.5618559943977651  0.9406923133129396  0.8757568832616045
  0.0627774247431952  0.9638538646652346  0.3448536892962570
  0.8669844247814760  0.5010470481597253  0.6883805233772691
  0.6068440336613299  0.0761575099635403  0.4362366308291183
  0.4435753244866140  0.2474618685307477  0.2145980968673128
  0.9181759105782944  0.6003879211011658  0.1981811990376081
  0.9557681581522514  0.3622431498265878  0.2767319115479992
  0.7884517656907503  0.2259661115116373  0.3319388421038046
  0.3741785580779899  0.8631071294122548  0.7259177006159149
  0.2224362041594231  0.0529422709293507  0.7812286322375657
  0.4478708963868478  0.8158228477560645  0.0135172309927612
  0.6810882426374614  0.2216385709884650  0.0109308973899390
  0.4769034718465295  0.5431951572551412  0.3400454784232652
  0.6469057645470299  0.6101051644922064  0.4627452801461857
  0.9698911199604632  0.0520014322808331  0.7920305199763218
  0.3979955865371647  0.7074666370383235  0.5098135911438053
  0.6239879324114461  0.3772735600315311  0.1417191105207580
  0.7219171386252768  0.0734097820238704  0.8151538919707396
  0.0318731457992857  0.5302440570654915  0.8135120948104565
  0.5617384883450585  0.3534650087286111  0.3830505997588537
  0.2330009078868703  0.1204715997146761  0.2980842458015220
  0.8370360933119331  0.3719043173161958  0.8875857141711683
  0.9486528580241710  0.7360527664741964  0.7545932523576465
  0.0734722888714273  0.6856698708163917  0.3668110362429133
  0.8805620745130751  0.0480995901851325  0.1485032607707953
  0.3445205448505296  0.3560901306804207  0.3993810101326581
  0.3343924916466809  0.6681944645886524  0.1233901092237639
  0.2743094423499681  0.2376361516431478  0.8401230370951033
  0.1064003699961055  0.4339112455323060  0.4097112191535394
  0.1596864042273750  0.5066305027673048  0.1774407400762421
  0.6804951047837851  0.6422314303821741  0.2443426482187338
  0.7218968879656856  0.7839622744564517  0.0531926919714322
  0.6770555892512773  0.8583664882953141  0.4870417210231426
  0.0649685533214186  0.2671817149056954  0.1036946643918150
  0.2248338752394445  0.3982556939482495  0.9719311719728253
  0.2192225366341014  0.0077522629308225  0.5054865387879072
  0.3942953273196602  0.5242006758068866  0.9354076726170273
  0.0141471499607256  0.1650865593314671  0.3277246859815047
  0.6315144418505029  0.5035079364145346  0.6991394874738027
  0.9073963391969754  0.5333636262076135  0.4528288323526292
  0.7355297454209908  0.0119753385805196  0.9994389106688957
  0.6276024505525551  0.4640276595226660  0.9121013304615144
  0.7622949115375567  0.6969687508411081  0.5939796460106948
  0.2036026045210980  0.6540555170073927  0.7487274431629353
  0.8787646455334260  0.2584382707108311  0.7172124396764709
  0.9291985454146970  0.6926803104703718  0.9689565573307316
  0.4765700906250585  0.7749665676303886  0.2608614892115242
  0.7632901803499306  0.5477139531416653  0.0437717895009580
  0.8351886452128375  0.9468359968689828  0.6467819074478326
  0.9725555320699352  0.0953260985598677  0.5315996693281556
  0.4047717156434905  0.1097708843998566  0.6341268909409044
  0.2308399657800003  0.8684301423944281  0.0156010767738440
  0.1202620804643312  0.8424514137562491  0.8207077369433453
  0.7349945494175087  0.3849158040899530  0.5247325939766166
  0.4827695655618875  0.0480751408972307  0.2782133696312302
  0.4477324108339893  0.9030115593557536  0.4951659167486800
  0.5156300194417538  0.1226758094219478  0.0502270416784815
  0.6944668555608984  0.7855919648734628  0.7867170978733458
  0.0805430566463683  0.3777527668539145  0.6367721222663677
  0.1529694865959103  0.6169251468047856  0.9759788308999661
  0.6816673581054293  0.9254454803344254  0.2469037647176623
  0.8257273378873728  0.3195080970478762  0.1071986413897472
  0.3202826859952221  0.9828777793846374  0.1205061153820340
  0.5454306164886482  0.2577122285860234  0.5655695179288440
  0.1678721402097791  0.2314927876856393  0.4773400122645353
  0.8795158316831939  0.8185280437565939  0.1901965041749084
  0.5584580393417786  0.6697928762478549  0.8728922036947345
  0.1343379238995530  0.0672510081553079  0.9752042156442042
  0.4267862405218926  0.6390279257005005  0.7276777258487648
  0.2959942594412762  0.2156341164416278  0.0827030516502636
  0.9658516322324434  0.7959726110252887  0.5238479072316222
  0.2447371750708322  0.5252543726879574  0.5761147134786616
  0.2212578619010620  0.8184655671149961  0.2175997419452300
  0.3650762086262414  0.4582171866705830  0.1668271903898233
  0.9575854285494657  0.9210230170976865  0.0230332130529120
  0.3381437531388802  0.3129214850006771  0.6010685373610770
  0.1742095725823760  0.7662174291250470  0.5395437128162635
  0.0548450797307190  0.2868318293625540  0.8661301028204318
