Sc  F  C 
 1.0000000000000000
    13.1286234000000004    0.0000000000000000    0.0000000000000000
    -6.5643117000000002   11.3697213799999997    0.0000000000000000
     0.0000000000000000    0.0000000000000000   26.8280942399999986
 Sc  F   C  
  32  32  16
Cartesian
  0.1019697300000000  1.8348100800000000 12.2226916899999996
 -1.5292108499999999  4.7251180599999998 12.2698851999999992
 -3.3610485200000002  7.6143561699999998 12.1172582900000005
 -5.0048061600000002 10.5072364500000006 12.1631596099999992
  3.2604584299999999  1.8546587100000000 12.2476081000000008
  1.7131439799999999  4.8202261000000002 11.9484561199999995
  0.0368566400000000  7.5506385099999997 12.1384009600000002
 -1.7374546600000000 10.4519217399999995 12.1027729900000001
  6.5667754399999998  1.8744859700000001 12.1242129199999997
  4.8139006999999996  4.7300197500000003 12.1154617600000005
  3.4217510999999998  7.5449548599999998 12.2082081000000002
  1.6228712199999999 10.3661318399999995 12.1730980100000004
  9.9120634400000007  1.9616899699999999 12.1294829499999999
  8.2899237499999998  4.7492523200000001 12.1097193099999991
  6.4875392200000004  7.4473882400000004 11.9054638799999992
  4.8241693200000002 10.2753362799999994 12.0556328599999993
  1.6707445400000001  0.8949216300000000 14.7898410800000004
  0.1238335400000000  3.7586658100000001 14.6234932799999999
 -1.7771050799999999  6.5901302900000003 14.7174502100000009
 -3.2883535199999998  9.5306010000000008 14.5547054899999999
  5.0362630499999996  1.0225725299999999 14.7586831200000006
  3.3859611400000000  3.7687690500000000 14.7842035500000009
  1.6385165500000001  6.8057219099999999 14.6812893300000002
 -0.0093366800000000  9.4416067199999993 14.7343374300000001
  8.2287193599999995  1.0616741700000001 14.6804899800000008
  6.5212455199999999  3.9530068900000002 14.6074191100000004
  4.8602222800000003  6.7311666499999996 14.7543541900000008
  3.1739057599999998  9.4813424699999995 14.7802296200000001
 11.4419097700000005  0.8683035700000000 14.5762414600000003
  9.8276914000000009  3.8827135600000000 14.8503817500000004
  8.1132751600000006  6.6924314699999998 14.5865363000000006
  6.5766741700000004  9.3703105499999992 14.5750629600000003
  0.1641379700000000  1.7867489200000000 15.9298876600000003
 -1.6785791000000001  4.9145173900000003 15.9890636599999993
 -3.2253962500000002  7.8126806899999997 15.8844670400000005
 -4.9263052600000004 10.3606705600000009 15.9425672299999999
  3.3010972199999999  1.8682681000000001 15.8024256699999999
  1.6488648299999999  4.6873379699999997 15.7579028999999995
 -0.0971618500000000  7.5443134100000000 15.9704311600000004
 -1.5375812300000000 10.4235325200000002 15.8895789999999995
  6.4879050700000001  1.9381337500000000 15.7968211699999994
  4.7692092900000000  4.7553383599999997 15.8804635199999993
  3.3241625799999999  7.7290150100000004 15.9567214100000001
  1.5616079400000000 10.2639482100000006 16.0757874100000002
  9.7612947499999994  1.9884710100000000 15.8377980399999991
  8.0758530299999993  4.6936217300000003 15.9524308200000000
  6.4004599799999999  7.5398338999999996 15.8686355500000005
  4.9984944899999997 10.2304299000000007 15.7677111799999992
  1.5321993500000000  0.9237633800000000 10.9820506800000004
  0.0259896600000000  3.7925411900000001 10.9993571299999999
 -1.7587435400000000  6.6514277899999996 11.1117802999999995
 -3.2544893099999999  9.3475684500000007 10.9823448799999994
  5.1121924099999996  0.9495660600000000 10.9048801799999993
  3.1891972800000001  3.7514489800000002 10.8927759599999998
  1.6767640800000001  6.6424749199999997 10.8732843599999995
  0.1154301800000000  9.5609563699999995 10.9219504900000004
  8.3852563399999998  0.7912304300000000 11.0383957000000006
  6.5313492300000000  3.8142347000000001 11.1429478199999998
  5.0089784599999998  6.5318295099999997 10.7719559900000004
  3.3642907300000000  9.2845710300000004 10.8427170000000004
 11.4641614199999999  1.0365750600000001 11.1587354800000007
  9.8020966800000000  3.7988885500000000 10.8738540300000004
  8.0730886399999999  6.6280506700000004 10.7880957300000002
  6.4735107999999997  9.5451152900000000 11.1564139699999991
 -6.4833587300000000 11.3171938799999996 13.4872734500000000
 -1.5038874799999999  2.9208255699999999 13.3768908599999996
  9.7943569900000007  5.6902649199999997 13.5126013399999998
  8.2124186600000009  8.5018639100000009 13.2849626700000005
  3.2914299200000001  0.1274106600000000 13.4280428799999996
  1.7131145000000001  2.6766812099999999 13.5019136100000008
 -0.0071651700000000  5.5839158400000004 13.2825661000000004
 -1.5966592300000000  8.4179801500000000 13.2772480799999997
  0.1341826300000000 11.3383087000000007 13.5015153899999998
  4.9518344499999998  2.9268417100000002 13.4919948999999999
  3.2537682800000001  5.7099760899999996 13.2853790200000006
  1.7860174499999999  8.4972169799999993 13.5425192600000006
  9.8574774600000001  0.0067547600000000 13.4227143200000008
  8.1384725699999994  2.7308413599999999 13.2995369700000001
  6.6771232800000000  5.6916677800000004 13.3283555699999994
  5.0276429000000000  8.4164573800000007 13.4297877400000001
