Sc  F  C 
 1.0000000000000000
    13.1286234000000004    0.0000000000000000    0.0000000000000000
    -6.5643117000000002   11.3697213799999997    0.0000000000000000
     0.0000000000000000    0.0000000000000000   26.8280942399999986
 Sc  F   C  
  32  32  16
Cartesian
  0.2020656600000000  1.8368286400000000 11.9957127099999994
 -1.6111825000000000  4.8605220700000000 12.1241212199999993
 -3.3418000100000000  7.5664467000000002 12.0851497299999995
 -4.8814776799999997 10.4272461399999994 12.1462822100000007
  3.3183985400000000  1.9783385600000001 12.3045048099999992
  1.6217344700000000  4.7082910199999999 12.0216222300000002
 -0.1188572200000000  7.6347419800000003 12.1677815200000001
 -1.6482439700000000 10.3989753199999999 12.2396930299999998
  6.5490161300000000  2.0268451199999999 12.1687282499999991
  4.8773186800000001  4.8499636700000002 12.1770889100000002
  3.2281775599999998  7.6479470799999998 12.0940963999999997
  1.6555720400000000 10.5323118900000008 12.2818375999999994
  9.8740853499999997  1.8386253100000001 11.9924425100000001
  8.2307951300000006  4.6711591300000004 12.2629753299999997
  6.4859501300000000  7.4774774400000004 12.0362493599999993
  4.9647304700000001 10.4453779900000008 12.0556848599999995
  1.7307232500000000  0.9906154400000000 14.6925086900000004
  0.0571449600000000  3.6843036599999999 14.6960008400000000
 -1.6940888999999999  6.5845633299999999 14.7412877600000005
 -3.3446335600000001  9.3687280699999995 14.6623312600000002
  4.9503142300000000  0.8422413100000000 14.8063420000000008
  3.3209575600000001  3.8073757499999998 14.6629794100000002
  1.4749104700000000  6.7266608999999997 14.7386344499999993
  0.1367740500000000  9.5358261100000004 14.9862518500000004
  8.1947736300000003  0.9545146900000000 14.7513970099999998
  6.4464172599999996  3.6773677299999998 14.8601503200000007
  4.7665582899999999  6.6484338100000002 14.6974935400000000
  3.2292486399999998  9.5327424000000001 14.5868400600000001
 11.5100175700000005  0.9120350600000000 14.5285968099999998
  9.9546976300000001  3.7302515199999999 14.6987118900000002
  8.2080724400000005  6.5480352699999997 14.7373463400000002
  6.5554643400000003  9.3825124700000000 14.4500278800000004
  0.0003146100000000  1.5554513999999999 15.7295729099999999
 -1.9727857099999999  4.7862593599999999 15.9030307999999998
 -3.5977365699999999  7.6994055799999996 15.7961152499999997
 -4.9277293799999997 10.0160827399999999 15.7249555900000004
  3.2885565600000000  2.0147775100000000 15.9343805700000001
  1.5734617500000001  4.7557310199999998 15.7490818899999994
 -0.0572648800000000  7.5318191600000004 15.8996713900000000
 -1.5579375700000000 10.4732063800000006 16.2246080699999986
  6.4960185199999998  1.9753046800000000 15.9461076300000002
  4.9294769599999997  4.8699990499999997 15.7556776200000002
  3.3267179400000000  7.3827569300000002 15.8101680099999999
  1.8506166399999999 10.5578326199999992 15.8861796999999996
 10.0739635799999991  1.7375451700000000 15.8184773399999994
  8.1674346300000007  4.9358767300000004 15.7120404600000008
  6.6097379399999996  7.7132676099999999 15.7653834699999997
  5.0778538199999996 10.3453951100000001 15.7809101700000003
  2.0958661200000002  0.9253736100000000 11.0803501499999992
  0.2023923000000000  3.5509118399999999 10.9355951699999991
 -1.5560036500000001  6.8575238399999998 11.0102999500000003
 -3.2561511900000002  9.5638884500000003 10.9450974100000007
  4.9456617999999999  1.0949613400000000 11.2636964899999992
  3.2022789100000000  3.8973545299999999 10.9436783999999996
  1.4399557900000000  6.6707634499999999 10.8167316400000004
 -0.1152362500000000  9.6711624199999999 11.0600360500000008
  8.2594066399999999  0.7632020100000000 11.0284442600000006
  6.4088259200000000  3.8188653800000001 10.8321400899999993
  4.9490942400000000  6.4293370300000001 10.8230833600000000
  3.0749300499999999  9.6073046299999998 11.0386255900000005
 11.3230873800000005  0.8468049300000000 10.9379790400000001
  9.9052207800000005  3.8022633300000002 10.8763142300000002
  8.2336430699999994  6.7597459000000004 10.8284075699999995
  6.6062069799999996  9.4685623000000003 10.9698383699999997
  0.0273264500000000  0.0488892500000000 13.2097215699999992
 -1.6602465700000000  2.9595600300000000 13.4039174600000006
 -3.1879379200000000  5.6902425399999998 13.3624961100000004
  8.2094094599999998  8.3480748299999998 13.2185569399999991
 -3.1725193599999999 11.2879920100000000 13.4697349699999993
  1.6474543600000000  2.7442199100000000 13.3801017600000005
 -0.0478830200000000  5.7043505999999997 13.4495927300000009
 -1.4985044300000001  8.6301373100000003 13.4775013900000005
  6.5570974800000004  0.1603321600000000 13.6122528200000001
  4.9553748500000001  2.7699138799999998 13.4705052900000002
  3.3004197300000002  5.6856588900000000 13.3441118200000002
  1.7427130600000000  8.6403105199999999 13.6754640300000005
  3.4061126200000000 11.2222491899999994 13.2301891099999995
  8.1491813000000004  2.9452482099999999 13.4213161200000002
  6.4787265100000004  5.7422709300000001 13.4354888100000007
  4.9943624099999999  8.4504485400000000 13.3788878400000009
