Sc Cl  C 
 1.0000000000000000
    13.7939866799999997    0.0000000000000000    0.0000000000000000
    -6.8969933399999999   11.9459428800000005    0.0000000000000000
     0.0000000000000000    0.0000000000000000   27.8102210700000008
 Sc  Cl  C  
  32  32  16
Cartesian
 -0.0681722900000000  1.8683080700000001 15.2020508299999992
 -1.6506299200000001  4.9779059500000002 15.1232141400000000
 -3.4335380000000000  7.9393935000000004 15.0937747699999996
 -5.0982027700000003 10.8718959300000009 15.1054119000000000
  3.4993199200000000  1.8702854200000001 15.0370042599999998
  1.7489814699999999  5.0261024900000004 15.0906745499999992
 -0.0852833100000000  7.9623165499999997 15.0592417199999993
 -1.6552168300000001 10.9549010800000008 15.0961852800000003
  6.9189449700000001  2.0482038500000002 15.2550269899999993
  5.2063142600000001  5.0692386799999998 15.2454649599999996
  3.3317574799999998  7.9768395700000001 15.2117135200000000
  1.6843384900000000 11.0946431699999994 15.1070971899999993
 10.2385921900000003  2.0342004999999999 14.9934865599999991
  8.7143961900000004  4.9661430199999996 15.1097798799999996
  6.8722371200000003  8.0094903800000008 15.1339516399999994
  5.1613166300000000 11.0207414900000007 15.1831936200000008
  1.6695180599999999  0.9981292400000000 12.6675934899999998
 -0.0446700200000000  3.9384488599999998 12.6149554399999992
 -1.6918791200000001  6.9701838199999999 12.6830016899999993
 -3.4322900100000000  9.8151036499999993 12.6449075299999993
  5.1237647700000002  0.9667755900000000 12.5925001099999996
  3.4160414399999999  3.8171954200000000 12.7083210799999993
  1.7251750200000000  6.9419111800000000 12.5990396100000002
  0.0641525600000000  9.8982877499999997 12.6834203700000003
  8.5811951799999999  1.0373798800000000 12.7272220300000001
  6.8358717300000000  3.9168502300000001 12.6061409599999994
  5.2274192399999997  6.9229902000000001 12.6588728899999996
  3.3559159699999999 10.0672271599999998 12.7601932500000004
 12.0432851900000006  1.0709750499999999 12.6730549799999999
 10.5047406799999994  4.0613670900000001 12.6411621200000006
  8.5777692400000003  6.9834474499999999 12.6509333200000000
  6.8845293300000003  9.9726804300000005 12.7004168699999997
  0.1050428500000000  1.8721031400000001 10.9605283100000008
 -1.5372442500000001  5.1995266800000000 10.8395745899999998
 -3.4975978500000000  7.8616211700000003 11.0628595900000004
 -5.1080737999999997 11.1011548999999992 11.0561063999999991
  3.6321456699999999  1.9550048400000000 10.8943503300000000
  1.9588204300000001  4.9936553699999999 10.9694681500000009
  0.0580204500000000  7.8481880799999999 10.9548789899999992
 -1.6986308699999999 10.8286289999999994 11.0824656099999999
  6.8890988799999997  2.0777209900000000 10.8559055200000003
  5.0913988899999998  4.9858893499999999 11.0787758699999994
  3.5100686900000002  8.1125971799999999 11.0416931900000002
  1.7065173300000001 10.7949172600000001 11.0023719900000003
 10.2325402499999996  1.8403129800000000 11.0335080699999999
  8.6677245700000007  4.9585990899999999 11.0447592399999994
  6.9053052099999999  8.0515015499999993 10.9731362499999996
  5.0669121600000002 10.9877037400000006 11.2313804200000007
  1.7146265199999999  0.8185901400000000 16.8666688399999991
 -0.0498614700000000  4.0152252500000003 16.7868134600000012
 -1.8476538300000001  6.9376582100000004 16.6845397499999990
 -3.4682409700000001  9.7537992100000004 16.7982563200000001
  5.1672981299999998  1.0993618199999999 16.8129472600000014
  3.4582009100000000  4.0779799600000004 16.7314230399999992
  1.6949629500000001  7.0620925300000001 16.9063945999999987
 -0.0713770800000000  9.8551884699999999 16.6541129400000010
  8.5745526800000000  0.9466997800000000 16.8217869700000016
  6.8206640700000003  4.1815602600000004 17.0415544200000006
  5.2384543399999997  7.0722824600000003 16.9482106600000009
  3.4203399800000001 10.0563876099999998 16.7650752800000014
 12.0153716399999997  1.0479271699999999 16.8625670200000002
 10.4165749600000002  3.8411400599999999 16.8884440699999985
  8.4851971899999992  6.9769353599999997 16.8251612100000010
  6.9264400100000003 10.0640031099999998 16.8497874299999992
  0.0746206700000000  0.1573043400000000 13.9789551700000008
 -1.7318334600000000  3.0096707399999998 13.8039320199999995
 -3.3222021300000000  6.0524140299999996 13.8255421199999997
  8.5730013899999999  9.0419125400000002 13.8898039999999998
 -3.3174357500000000 11.8744165099999996 13.8853449799999993
  1.6573944100000000  2.9204964499999999 13.8056266099999991
  0.0781913300000000  5.8537012199999996 13.9254748999999993
 -1.7855715200000000  8.8818329499999997 13.8643190000000001
  0.0309613000000000 11.9237959399999998 13.8388460200000001
  5.1652008299999999  2.8716194900000001 13.9529327799999994
  3.4571959900000002  5.8195340000000000 14.0612028000000002
  1.5816473700000000  8.9261055299999992 13.8954485600000002
  3.3903457399999999 11.8604878700000000 13.9287133599999997
  8.5868476499999993  2.9962087799999999 14.0155775899999995
  6.8727265600000003  6.1008576500000000 13.9916903399999999
  5.2751993900000000  9.0526012500000004 13.8898440300000008
