Ca Si  O 
 1.0000000000000000
    11.1219476799999999    0.0000000000000000    0.0000000000000000
     0.0000000000000000   11.1219476799999999    0.0000000000000000
     0.0000000000000000    0.0000000000000000   11.1219476799999999
 Ca  Si  O  
  27  27  81
Direct
  0.6162766079475029  0.7058427081181882  0.9118524229561921
  0.2675015658768141  0.4034587816007421  0.0016625397396223
  0.4169324504500816  0.0061321669515352  0.2351045478034473
  0.1002451505867900  0.9709861276743571  0.9607249923693221
  0.5460517208618985  0.6954635296396215  0.2468234241864371
  0.2371993805315221  0.2402816707010439  0.2972923075286396
  0.3316326848608228  0.8110318434801340  0.8419365357057677
  0.6973537669078479  0.3136305313027691  0.6727704189307965
  0.9394914191863919  0.4478641064781559  0.5919970341022140
  0.7399516044117912  0.1959287197438066  0.1032326543007079
  0.6438213940600015  0.0038997054515905  0.8524476443140397
  0.7278737063794567  0.0177663018821178  0.3342268716732535
  0.2745282407226717  0.6589352666330830  0.6209400249579308
  0.5967302572313484  0.2589467504130535  0.4100755255485971
  0.9954720745458497  0.2706805189718353  0.8061625245840034
  0.8076697138355896  0.4254829941800266  0.3303493736629410
  0.7878715807805347  0.8156920056649646  0.6330256284751736
  0.4080568422526512  0.0903471648052205  0.8595843988001929
  0.2759709223879391  0.8935580220244300  0.6148778241690127
  0.7720972888086810  0.4678214994084561  0.9370746734172732
  0.8666288663929409  0.1276593579515922  0.9065896558866027
  0.1820000550479123  0.1414976643731163  0.7091736345949076
  0.1002215207327787  0.9674464562847143  0.4201968948661697
  0.9971114097166837  0.6783713596825695  0.5146696724975063
  0.5570010692587614  0.3635849166303576  0.1855061621724874
  0.5241921988613418  0.4370687877575054  0.6542796144496879
  0.0979328550482805  0.4975024626262223  0.3083431219665654
  0.5314866460511888  0.8294618996085764  0.4614197294983139
  0.4015394954636218  0.4884381473731227  0.3671792583005569
  0.2795046415827052  0.8318930772024635  0.1075823978341175
  0.7964244415506907  0.6188376404949963  0.1249894362027785
  0.4629864424969135  0.1769777971118814  0.0738271401399004
  0.5427152387035865  0.7148552392758603  0.6660902850066275
  0.1555315579402186  0.6243893380732034  0.8900465561262197
  0.2101157105964735  0.4224553572077224  0.5463124135106523
  0.5504007567854338  0.0191620717999997  0.5889307815913049
  0.2932115141904713  0.7444866805919014  0.3525119379090623
  0.2169763902359950  0.1560165350463148  0.0522681931911408
  0.2939789103557444  0.5972108960685203  0.1343521776034825
  0.2981322422476996  0.3744943088960835  0.7946316953003325
  0.9028829903648674  0.7932123647609175  0.8798852019055712
  0.0393601590832155  0.3908506985531872  0.0693045186128766
  0.5990378009043106  0.9362782355760910  0.0753644814844157
  0.8870133077266913  0.9411326721867836  0.1497124818339372
  0.5330236277464667  0.3980558951883147  0.9136547160955535
  0.0249590195878354  0.1778585358351551  0.1739006562203141
  0.8370135031960517  0.1162223962197240  0.5487533384979922
  0.9881288724062762  0.9569352047158703  0.6702597372765199
  0.4003814024415550  0.1647434327797521  0.5071287837599322
  0.0562853555880061  0.7647195972063769  0.1767990406514842
  0.0151906136282058  0.2574068861291388  0.4411433987252851
  0.8442035397167054  0.7658872685867553  0.3177710201204614
  0.9504491465113599  0.5787073213421194  0.7817473126253728
  0.6330144182084482  0.5761903251463596  0.4880225537978794
  0.8749261361387738  0.0428136252480555  0.2447926270050571
  0.3048976921639322  0.4361656707595661  0.6836150212855523
  0.1700554178474610  0.6598537712236388  0.2153677079696530
  0.9193592978671520  0.8877598676134033  0.9979362895186716
  0.5697498443905645  0.9078434767461521  0.2167628844662934
  0.3251622507183022  0.1707006393685894  0.1496827811008009
  0.2075299152998713  0.8029344299163255  0.4638207855694570
  0.7975126691119265  0.6047304558080784  0.4705328968064341
  0.4536271537288871  0.2860994918832418  0.7917919453834367
  0.4235564476239291  0.8398266031044663  0.3763125992335184
  0.3005053913362772  0.2802571329844630  0.5354272499149177
  0.5374463800750409  0.0516070356123092  0.0228961066286908
  0.6249744235444920  0.8855363901514054  0.5740697019714806
  0.1211316002162671  0.5587452736515660  0.5502396132473085
  0.5726108208054437  0.5230351560150479  0.3343099461514460
  0.8872106130965003  0.9846201344475305  0.5761773022474783
  0.7300611955405277  0.2894761774315414  0.9456601822460650
  0.4250839786363749  0.3238943774639300  0.3383640355337474
  0.0881250845805094  0.5249602271101494  0.7913134635425653
  0.1456995911708874  0.1168980557549251  0.1896468254200599
  0.3213631211759126  0.2077550422355520  0.9732492106094855
  0.9959491330748643  0.6819333311231689  0.2899786271967069
  0.5093767353525259  0.2375972811625382  0.5756903812372546
  0.1845229126271164  0.7172827286668192  0.7956558261745033
  0.1515103575815419  0.3206037191140608  0.1260892750396395
  0.9486607699992344  0.6662232221541974  0.0966520182371511
  0.7523805129067105  0.8564196050956427  0.8244779766847455
  0.5302310997744237  0.0148489738264980  0.4469634539766150
  0.0943489512980697  0.3412498996758452  0.5577552456171957
  0.3258867515190468  0.1007410088805597  0.3948431584421911
  0.0255543244922008  0.9148548682976720  0.2148743474398362
  0.6971207510661478  0.7032626312444583  0.0737532753795511
  0.7843472799001694  0.6445655712705168  0.2698782736945944
  0.6171919359361705  0.7356358018760253  0.4309183146597934
  0.2127820421467762  0.9842016142266189  0.8085850562102267
  0.6695365878577842  0.6512585617557949  0.6157006045185783
  0.5236175962661964  0.8470592724457052  0.7511557229335931
  0.9479024028280629  0.8784614908384464  0.7790302894142008
  0.9105420976049762  0.6441602951327675  0.6659649913044726
  0.8863325213916129  0.8362754651980163  0.4349429361818397
  0.4720157045371032  0.5485126369520917  0.4972981809603333
  0.6211726946372400  0.4519648972130392  0.8037154693754142
  0.6702111135987650  0.4070284198639567  0.5187024050089759
  0.5716959037160296  0.0933788442349515  0.7348582752908617
  0.1017212032056601  0.1534827684066214  0.9785239324197216
  0.2633046615806414  0.4514237204180050  0.4049553270331514
  0.3788997180393137  0.7277197279532608  0.1279427453663404
  0.4934130691756680  0.8305991500582207  0.9894842519165671
  0.8264300844112584  0.6569418702750092  0.8959546319318776
  0.7266411416889528  0.2658226207372341  0.2670103065976659
  0.8330449419988639  0.1776796328176937  0.6831234311291060
  0.8934710408563979  0.4360060062789290  0.7849021116776194
  0.1583109506229937  0.7805342616033597  0.0509462727485156
  0.3924582209507391  0.4421700462449936  0.8865630241842676
  0.3718214730893249  0.0699771651865926  0.6188611076077278
  0.2418942147010711  0.8964381758357632  0.2443856946825702
  0.1372065670425811  0.5018194708860562  0.1414338437168408
  0.0643569355471020  0.4377864156613260  0.9451520796940127
  0.6937966192626434  0.1045281872787950  0.5524059190683047
  0.5277952467404522  0.2986087487151351  0.0198671803138711
  0.0803368506764995  0.1574448990754468  0.5082962690218302
  0.8879163707772451  0.2447728157268224  0.4851092448224859
  0.4458830227117198  0.7717512972512023  0.5779416676774008
  0.7414631139498401  0.4917433760127165  0.1224195634770330
  0.2879021527639483  0.9689599888497227  0.0443115823037211
  0.0921155969688935  0.8904996970818334  0.5984302139784926
  0.4756688740330416  0.4677844051861247  0.0632659072174308
  0.9836330510412902  0.2124762243082229  0.2986903144647773
  0.3721256904887723  0.6419797552940835  0.3260418916122792
  0.1640356331904629  0.3283428941647386  0.8103862506211681
  0.4571591582959145  0.6005694301198151  0.7027999523910725
  0.2831676852484528  0.5961633799018194  0.9711454639750651
  0.9146219891226821  0.1456038678290204  0.0663357292470198
  0.9866599552282733  0.4009663863119342  0.4154354905219262
  0.8977622739545201  0.3786502050871003  0.1186891386275609
  0.5430891003795838  0.1709405640721374  0.1876555608828399
  0.7360201931825667  0.0155409092879315  0.0605328931020470
  0.0100660219973270  0.0711299255095938  0.7258377572227529
  0.0060545771242110  0.6731937674427182  0.9046999877632944
  0.3035137412191099  0.4713926778695294  0.2124444771709266
  0.7909925773000939  0.8534501314971120  0.1913029625041358
