Sc  F  C 
 1.0000000000000000
    13.1286234000000004    0.0000000000000000    0.0000000000000000
    -6.5643117000000002   11.3697213799999997    0.0000000000000000
     0.0000000000000000    0.0000000000000000   26.8280942399999986
 Sc  F   C  
  32  32  16
Cartesian
 -0.1058030600000000  1.9876148300000001 12.0408347300000003
 -1.8023635899999999  4.7957055999999998 12.1343720899999994
 -3.1604357200000002  7.6585602100000001 12.0980759899999999
 -4.9157820499999998 10.3042591699999999 12.3021405799999997
  3.2400021899999998  1.9649872500000001 12.1621758599999996
  1.5944224100000000  4.8992002299999999 12.0535186000000003
  0.0611119000000000  7.6208923400000002 12.0242181299999995
 -1.7574904000000000 10.5223635099999999 12.3785614699999993
  6.4932952600000000  1.9339195899999999 12.1350160200000001
  4.9992657400000002  4.6235354299999996 12.1398343000000004
  3.4880327000000002  7.5346071500000003 12.1590591400000001
  1.5290909600000000 10.4200092299999998 12.1454725299999993
  9.6770048899999992  2.0206281399999999 12.0033676400000004
  8.2006953599999992  4.5684590299999996 12.1900346699999993
  6.5773109300000003  7.5197432800000001 12.1240418900000009
  4.9300554300000003 10.5800007199999992 12.1274962599999991
  1.6838918899999999  0.9826339800000000 14.7003101899999997
  0.0305597600000000  3.7506665799999999 14.7539765599999999
 -1.6364482100000000  6.5567181400000001 14.6607717399999995
 -3.1928373900000002  9.5124494899999998 14.8457002399999993
  4.8349583799999998  0.9417357400000000 14.7575899600000007
  3.3095272200000001  3.7526931100000001 14.7440391300000009
  1.7337698500000001  6.5900101900000001 14.7165570999999993
  0.0996110800000000  9.2768238400000005 14.6611443999999995
  8.1216179600000000  0.9660336600000000 14.6912684700000007
  6.3568218300000003  3.6714945000000001 14.7493308600000006
  5.0605729300000002  6.6420417399999998 14.5587968300000004
  3.3765348999999998  9.5831338699999993 14.5528783500000003
 11.5173144000000001  1.0113562700000001 14.5506946599999996
  9.8222188799999994  3.8487869899999998 14.7793236799999992
  8.2683107299999996  6.5630819000000002 14.5649184500000004
  6.6167390199999998  9.4254579199999995 14.7920315700000007
 -0.0437914800000000  1.8688501399999999 16.0331345700000014
 -1.4950415100000001  4.6648275799999999 15.7730393000000007
 -3.2043394300000001  7.4841140299999998 15.8284845000000001
 -4.6964039499999997 10.4392249499999998 15.8456133700000006
  3.1020780000000001  1.9367777900000001 15.9673306499999992
  1.6155305099999999  4.6541912200000004 15.6816310500000000
  0.2665109700000000  7.5489349399999996 16.0531445800000014
 -1.6692889300000000 10.4310634699999998 15.8574105200000002
  6.5175657800000000  1.8050633800000000 15.9158038200000007
  4.9293339400000002  4.4912315200000004 15.9801759200000006
  3.4013586000000000  7.3169488600000001 15.7262200700000001
  1.6008286899999999 10.4317557399999998 15.8389317900000002
  9.7946752099999994  1.8302716000000001 15.7924587400000007
  8.3441155499999997  4.8795145000000000 15.9188632800000001
  6.5066794000000003  7.4211056199999996 15.7606229399999993
  4.8869378200000000 10.5055611800000008 15.8202361699999994
  1.6844277299999999  0.8936522800000000 10.9082416500000008
 -0.2647454600000000  3.7051835500000001 10.8916669099999996
 -1.5678159700000001  6.7677816799999997 11.0336252800000008
 -3.3935091200000000  9.4739125699999995 11.0609384100000003
  4.8664727200000000  0.9163120100000000 11.0381119200000004
  3.2427917000000002  3.6572172799999998 11.0139802800000002
  1.6991661000000000  6.8258178300000001 10.9036566300000004
  0.1268971200000000  9.4854269200000001 11.0171350700000001
  8.2003988299999993  1.1960193699999999 10.8130523899999993
  6.3026356200000002  3.6855382300000001 10.9296548399999995
  4.9650529199999998  6.7450888600000001 10.8950301300000003
  3.2695408300000000  9.4202922299999994 11.2496322800000002
 11.3568681199999997  0.7799463400000000 10.8107053099999995
  9.7461261500000003  3.8192203000000000 10.7877015299999997
  8.1412829099999993  6.7491793600000003 10.8009394099999998
  6.5880682200000003  9.4839757900000006 11.1792584999999995
  0.0307407200000000  0.0576895800000000 13.4486796900000005
 11.4853162399999995  2.7867578800000001 13.3035661800000007
 -3.1221776000000001  5.6683445800000003 13.4780436800000007
  8.1327974199999993  8.4898544499999993 13.5283062500000000
  3.3354109500000000  0.0555525300000000 13.5130139400000004
  1.7183462899999999  3.0762185700000000 13.3395063799999996
 -0.0794368000000000  5.7576422400000000 13.3975770599999997
 -1.7480197300000000  8.4909867299999995 13.5678909200000000
  6.5256812699999998  0.0926840700000000 13.3418694500000008
  4.7601976300000004  2.9183885100000002 13.3919321500000006
  3.5683248100000000  5.7324360800000003 13.3942885399999998
  1.6930251199999999  8.4908917699999993 13.4293549999999993
  9.8750707999999996  0.0632258400000000 13.3194560499999994
  8.0862474599999992  2.8383434300000001 13.4587630500000000
  6.7026003100000002  5.5781589100000000 13.3705420099999994
  4.9243559699999997  8.6457199899999999 13.3567689099999996
