Sc Cl  C 
 1.0000000000000000
    13.7939866799999997    0.0000000000000000    0.0000000000000000
    -6.8969933399999999   11.9459428800000005    0.0000000000000000
     0.0000000000000000    0.0000000000000000   27.8102210700000008
 Sc  Cl  C  
  32  32  16
Cartesian
  0.0275662400000000  2.0903945400000001 15.5141337200000002
 -1.6685045599999999  4.9290045500000002 15.0961113000000005
 -3.4283793999999999  7.8200586000000003 15.0441145100000000
 -5.1366007199999997 10.9880921499999999 15.2629577199999993
  3.4023949999999998  1.8542923600000001 15.2536499499999998
  1.6229713200000000  4.9805015099999999 15.2944502700000005
  0.0397046200000000  8.0206388799999999 15.0276906399999994
 -1.7399785600000000 11.0587633099999998 15.2113087900000004
  7.1106138699999999  2.0338805299999998 15.1558446100000008
  5.2009565200000001  4.8309280599999997 15.1642014399999994
  3.4397694699999999  7.9588390200000001 15.0538899700000002
  1.7602052699999999 10.9599592599999998 15.1199025400000000
 10.2863587600000006  1.9477383300000000 15.1619371399999991
  8.7782333300000008  4.9468912400000002 15.1989776600000006
  6.8534292900000002  7.8962586500000000 15.0194302799999999
  5.0792449000000000 10.9237909599999998 15.1257768000000006
  1.5920021400000000  1.0596429999999999 12.5788471600000005
 -0.0002463200000000  4.0617402499999997 12.6881249700000005
 -1.9061345800000000  7.0185034799999997 12.5362030299999994
 -3.4764553199999999  9.9544328199999992 12.8769158800000003
  5.2930319700000004  1.0266343499999999 12.7119527100000003
  3.6853345900000001  4.0615537200000000 12.7660802199999992
  1.7630453900000000  6.9034755900000002 12.5649675300000006
 -0.1255902600000000 10.0783679599999996 12.5927311900000003
  8.5423691200000000  0.8496901500000000 12.5402835400000008
  6.9879564600000004  4.0370310800000002 12.5381328100000005
  5.3097643699999999  6.9577420500000002 12.6942708500000006
  3.3974860499999999  9.8490869300000004 12.6109269499999996
 12.1344441799999991  0.9643959100000000 12.8192599999999999
 10.4532703799999993  3.8386928899999999 12.6244875200000006
  8.4850284400000007  6.8942089500000003 12.5206933399999993
  6.8679730499999998 10.0247126400000006 12.7682437800000006
 -0.0262218500000000  2.2086650099999998 10.8088241699999994
 -1.6202298799999999  4.9103019200000002 10.8766724799999999
 -3.4848578500000000  8.0704267400000003 11.0236323299999999
 -5.2476113099999999 10.8768922299999993 10.9995069700000005
  3.5789304999999998  1.8533785899999999 11.1451564600000008
  1.7533372599999999  4.8352639300000000 10.9754802799999993
 -0.0124347300000000  8.1658877600000004 11.0152201900000009
 -2.0794405199999999 11.1100560399999999 10.9771839599999996
  6.9332241200000002  2.0375201299999999 11.0330266800000008
  5.2618139199999998  4.8980913399999997 10.8776600499999994
  3.4571417100000001  7.7387417799999998 10.7787451099999991
  1.5905586400000000 10.7622330399999999 10.8278076500000005
 10.3802957100000004  1.8620681400000001 10.9560325100000000
  8.8413854599999997  4.9474293100000004 10.8485108500000003
  6.6883979699999996  8.1382194899999991 10.9412726100000004
  5.1018097100000004 10.8604741699999998 11.0633862599999997
  1.5491319699999999  0.9713348800000000 17.2981103099999984
 -0.0942412200000000  4.2449129200000000 16.9798894400000009
 -1.6010852099999999  6.8781512100000004 16.6910636500000003
 -3.4368022699999998  9.9070573199999998 16.8580220899999986
  5.2340270999999996  1.1956125000000000 16.8166732199999984
  3.4143677000000001  3.9446933700000000 16.9289460799999993
  1.7788156799999999  7.0614050900000001 16.6799125600000018
 -0.0185404100000000  9.9119975100000008 16.7572187700000015
  8.5956946199999997  0.9408460900000000 16.9478184600000006
  6.9210710600000001  4.1163908100000004 16.6878222200000010
  5.2483418100000003  7.1724525100000003 16.8996099400000013
  3.2665748200000002  9.9713247700000007 16.7483158000000003
 11.9557274800000002  1.0014356099999999 16.9330393500000014
 10.4940741200000005  3.9506500600000001 16.7997688700000012
  8.8158700099999994  6.9896742300000003 16.6865680000000012
  6.8840366099999999  9.8233573599999993 16.7485732799999987
  0.0332172300000000  0.1389008100000000 14.0645135299999993
 -1.6623405099999999  2.9607126600000000 13.8154040200000008
 -3.4225647200000000  5.9839920500000003 13.8330406099999994
  8.4995159200000003  8.9156688299999995 13.8693093199999993
  3.2999462199999998  0.0098830800000000 14.1865916900000002
  1.7208705399999999  3.1318878600000000 14.0641967099999992
 -0.1122854900000000  5.9946222899999997 13.9804419699999993
 -1.6929843099999999  9.0663859099999993 13.8804231100000006
  6.8480016099999999  0.1638802600000000 13.8917695899999991
  5.2499229999999999  2.9789315300000001 13.9242844199999993
  3.5024430099999999  6.0368194600000002 13.8150333599999993
  1.7260568199999999  8.9960152200000003 13.7611626099999995
  3.3226965900000001 11.8074931999999997 13.9339337899999993
  8.6352294599999997  3.2109837699999999 14.0599513799999993
  6.8611319399999999  5.7450912599999997 13.8514575299999994
  5.0995163699999999  9.0050663899999996 13.9478910700000007
