Ca Si  O 
 1.0000000000000000
    13.3109356200000004    0.0000000000000000    0.0000000000000000
     0.0000000000000000   13.3109356200000004    0.0000000000000000
     0.0000000000000000    0.0000000000000000   13.3109356200000004
 Ca  Si  O  
  27  27  81
Direct
  0.1618424715962979  0.9769515442972294  0.0784271413972927
  0.5414804598085795  0.6001705798949690  0.4533588946920321
  0.8095959095323157  0.0795508234904978  0.1660783120818670
  0.1203475079237142  0.0387403564047889  0.4968759784295312
  0.4020247210841817  0.1685178498369148  0.4763066745266100
  0.0330252419927188  0.2760511097716510  0.2947076300260852
  0.8923085731219245  0.5764237780905141  0.4402611542343257
  0.0244569149227092  0.7941969221243967  0.2339467148591017
  0.0776788551547363  0.7975485790832786  0.8564989641201494
  0.4918256647687099  0.9038955482529785  0.4364657839130920
  0.2030909627372985  0.5959648357160335  0.4148661790312227
  0.8864765067506200  0.4953937219929248  0.0197329231767406
  0.7310452231005531  0.8785558802064133  0.8357934759510165
  0.3104660129067621  0.3130935306860120  0.2623133106251174
  0.6332864901948944  0.3205062500332339  0.0292891049231895
  0.3137755653873412  0.6014316617962877  0.7003284078688977
  0.3558783676244691  0.8411790199913834  0.8250575153784718
  0.4056379892550332  0.1174670289630625  0.8518018517769677
  0.3362014878410177  0.3423686719025690  0.8999231129930143
  0.1872410198014315  0.5319744984237254  0.0151182701009863
  0.6496547302810859  0.5688499077873235  0.1490372267310237
  0.9957485678230633  0.2931538744832424  0.6089493204235029
  0.9980525305853742  0.1873620368393007  0.9043213733160553
  0.5827966531777125  0.1427043090153568  0.6581155014255864
  0.8936714758147105  0.5941624567785265  0.7961495827593823
  0.5933010440027956  0.6215848867579452  0.7237591777939948
  0.5542737100249006  0.8631640681017732  0.0481026239085664
  0.2364023822091027  0.3435738035670854  0.5149131342579508
  0.0731182779171161  0.4345090987676191  0.8175522029908217
  0.8622799349096393  0.8337307313939213  0.4664396108017537
  0.1970345064293835  0.2178868047143331  0.0450591278571596
  0.4240476207787413  0.5137644621858669  0.0952035150779281
  0.3757236773413227  0.6795712621739807  0.9327160692855938
  0.0573535363549448  0.5017056254081709  0.5825951309048552
  0.7173902994205901  0.6480615500114634  0.9594305024517877
  0.8447073865420738  0.3350950554743949  0.1973016108690337
  0.4085898786730064  0.3078961139171973  0.6663985637998300
  0.0275400948862827  0.7335459766877003  0.6228815334019323
  0.3420601646633161  0.9902402292589556  0.6216095559479536
  0.3879949064016282  0.0929513954031129  0.1091268383732142
  0.2496590168317559  0.7941164093767887  0.2370587733336208
  0.8443042007591048  0.0730665520264908  0.7266073930571680
  0.9227998076667130  0.9484357366308108  0.9522540850513106
  0.0165057443197220  0.5147778402371989  0.2285699838731546
  0.8998018495412120  0.0719904533652909  0.4748437518173497
  0.6936090394823801  0.3581301740230338  0.3530635647383590
  0.6823267243779215  0.7767971775375470  0.5943836095272166
  0.5579580580977973  0.2200391395176773  0.2607954045532375
  0.2460478484381701  0.0032382224082908  0.2962035459082176
  0.6266827455364103  0.0696212134485555  0.9774572728344395
  0.6894656117343613  0.1370136970131330  0.3930570186320230
  0.4668190867562771  0.7135463066720173  0.2558504178235970
  0.8366315139611500  0.8016827212330848  0.0866485822579615
  0.2296598726994669  0.7914018045562449  0.6260448940553135
  0.1097055632818093  0.8299338007015317  0.5916766119855968
  0.3844640591838427  0.4311240031375044  0.6558442944373583
  0.1594523541088241  0.8381676336287471  0.1580682598177873
  0.0847038218940766  0.3196930697798687  0.7851619283844150
  0.5519344094010424  0.7587220724608988  0.1911292994443917
  0.0357367418474525  0.6178901975637381  0.5570658157837293
  0.5596952079616473  0.1402024788697761  0.9107415456044403
  0.8828682727863723  0.0498823973727551  0.0225018164425620
  0.1164335832014189  0.1278376117636124  0.0150847901103439
  0.9812984746447146  0.7473349007152661  0.7334614852565863
  0.5192184041229703  0.2682758118546140  0.6075543816656217
  0.2551034628172891  0.0887501888466049  0.3831019009916900
  0.4414436098068965  0.0100155266170538  0.5563166806151226
  0.6618555210170869  0.2697811605823092  0.4249295662959566
  0.5487291283285464  0.4447316807020962  0.0916830826051279
  0.2947660744526988  0.8910886453524894  0.3032747460617648
  0.8891803279565407  0.8143979175822953  0.3513466178119791
  0.2915548411314455  0.3797024337196817  0.4148352608439706
  0.1923748505065641  0.7016003612824925  0.2867501548324670
  0.3632848545022111  0.5955643386997315  0.0203260129658714
  0.3152644524622830  0.1637438127733954  0.0279464126804935
  0.8115674268432829  0.1034374772222059  0.3830114543067709
  0.0257100567360418  0.5094908414860172  0.7005753371677714
  0.8361016068080117  0.6699225429804910  0.0468860024431551
  0.9612108558902338  0.4501434227506240  0.5369242586720586
  0.2598036230303696  0.7261998311730997  0.9274346479034355
  0.8099977888706819  0.3579031681921695  0.3104455447738091
  0.2322827529384444  0.7816092074224906  0.7420306980644835
  0.3609031241036083  0.7695075667415781  0.1874569422641381
  0.8552937648420539  0.0816694424069343  0.5952598672398958
  0.2025224317026634  0.2474254495718160  0.1642427942266616
  0.3162544534942315  0.9992954454692193  0.7609512621172154
  0.0636726413676396  0.5650818698798574  0.1121358687782460
  0.6359554438292745  0.3139745093290444  0.2507133874936434
  0.6524479366387319  0.9460905093011034  0.9427323764638565
  0.4328253410934910  0.7837001693799793  0.9545269515772775
  0.8960216659811325  0.9847895755955883  0.8248022004932511
  0.9816599458543546  0.4865952668472150  0.8954825723963646
  0.9529912045356281  0.6049969310872528  0.2972809555215924
  0.4871609671266668  0.0168487712962134  0.0978681031288768
  0.7289096391858291  0.0783484031305081  0.7594405952058837
  0.9227252914923195  0.9477710726092445  0.4658514470374998
  0.9045189221642407  0.1822292203378563  0.7609727429513328
  0.1370304381353472  0.2730234826272865  0.5022625622164942
  0.5614202632586994  0.7582840889737545  0.5170266581155623
  0.8437025563496791  0.8497476325409498  0.9465152450342930
  0.1354236014252468  0.9878322347411367  0.3031575416785015
  0.0490986252700394  0.9200152002538194  0.9789303082813647
  0.9956408992082556  0.1504060471145153  0.4755270952170678
  0.7457263481227776  0.6531909903415188  0.8412541972763293
  0.9311427568905933  0.4242318166962932  0.1937033686892702
  0.3186942061102088  0.8713534360855093  0.5854039935623999
  0.6352711974126429  0.7260155856722564  0.0001012580962359
  0.2514879701596814  0.0605352232933420  0.5796730973896784
  0.7925998638403751  0.3508414354422367  0.0758540555543608
  0.7004175954387193  0.6371223490298873  0.5993649573372364
  0.9484993985719539  0.8642548028490876  0.1089824337982937
  0.6592737919049450  0.7972231286323357  0.7093198389310518
  0.7778059924235438  0.8381742980738720  0.5484948487790822
  0.3386577847485674  0.4285900167249099  0.1145914136725424
  0.9085284705178371  0.2259571765549565  0.2167016904255750
  0.9315581093615115  0.7436835548303853  0.5254071276170743
  0.4972527971703915  0.1936367805826710  0.1505914878731868
  0.4460038677581704  0.5923219099755513  0.2031213114679613
  0.3913667565315743  0.2572257403796233  0.7758378723193012
  0.3107629229146553  0.2737378388732677  0.6077774043054082
  0.4672488003514211  0.2325917139399401  0.3400960638107270
  0.2719396392062183  0.6879446893455863  0.5763400762357529
  0.6967422722761241  0.1205635340605757  0.0515035982121293
  0.2090308126664953  0.5185181415519460  0.7963137222355523
  0.6605142719486761  0.4634246476807766  0.4030901901394667
  0.4129740678589504  0.6341124276281339  0.8366765851730562
  0.1893750718929553  0.4585393674978949  0.5664692118764826
  0.6667361351117405  0.1319097958344719  0.2743986932452762
  0.6977989650888267  0.5177272985713681  0.9908845318267717
  0.0879512232213771  0.4271461009440296  0.3054297989309935
  0.2989022487661915  0.0254857081188407  0.1781136471306891
  0.6389219956275319  0.0681149196332752  0.4778516388016307
  0.4199842407471579  0.7277239389127178  0.3660221046129588
  0.7550778154841680  0.8418584711027246  0.1848367327615397
  0.1744561371411696  0.3055410104973522  0.9562995857987628
