Sc  F  C 
 1.0000000000000000
    13.1286234000000004    0.0000000000000000    0.0000000000000000
    -6.5643117000000002   11.3697213799999997    0.0000000000000000
     0.0000000000000000    0.0000000000000000   26.8280942399999986
 Sc  F   C  
  32  32  16
Cartesian
  0.0868173600000000  2.0063263299999998 12.1994706500000003
 -1.5843585300000000  4.7089525500000002 11.9590378099999999
 -3.3630488600000001  7.6050037100000001 12.0997062199999998
 -4.8918891300000000 10.4328947500000009 12.1406572700000002
  3.2975594500000001  1.8452335399999999 11.9591677300000008
  1.7394638400000000  4.6359510999999998 12.2094561400000003
  0.0170484600000000  7.4848111800000003 12.2578063400000001
 -1.6899963300000000 10.4299665299999997 12.3132806099999996
  6.4328064500000002  1.8295844000000001 12.0853375100000004
  4.7733924099999996  4.8702189000000002 12.1062138600000004
  3.1478299700000001  7.7438506900000004 12.1967710199999999
  1.6202732399999999 10.4889463299999992 12.0934059600000001
  9.8421534800000003  1.9044515200000001 12.1141931599999992
  8.1118374299999996  4.7137921599999997 12.2420544200000005
  6.5315676399999996  7.6061124900000001 12.0645909600000003
  4.9408956300000000 10.5170617699999998 12.1726514300000002
  1.7412887900000000  0.9395607100000000 14.7712065999999993
 -0.0142624100000000  3.7826628900000001 14.6748987599999996
 -1.6516052000000001  6.4523716599999998 14.6676292900000007
 -3.2427998100000002  9.3941667399999993 14.6923586600000000
  4.9769235399999996  0.8490131400000001 14.7507196399999998
  3.2742199500000000  3.6529385099999998 14.7056521100000008
  1.5430853700000000  6.5337458300000000 14.6436374399999991
 -0.0149205900000000  9.5224435500000002 14.6782347299999998
  8.2136182099999999  0.8861512800000000 14.7764405700000001
  6.5464079000000002  3.8593587299999998 14.7425028400000002
  4.8762567199999998  6.7242621600000003 14.6832888500000003
  3.3993608399999999  9.4099739499999995 14.6665403100000002
 11.4482571499999999  0.9007670600000000 14.6591139399999992
  9.6693183200000004  3.8825408900000000 14.7222112099999993
  8.1391755000000003  6.7120350400000000 14.7317756699999993
  6.6537530699999996  9.5412458400000002 14.5702318399999999
  0.0002644400000000  1.9319181500000000 15.9383304599999995
 -1.8266919800000001  4.7816311899999997 15.8021244500000009
 -3.4537358800000000  7.6856910599999999 15.8143364200000001
 -4.8957093299999999 10.4416478799999997 15.8422763199999999
  3.2785988200000000  1.8874514300000000 16.0425896600000009
  1.6071177699999999  4.7014927399999999 15.7750094999999995
  0.1845436000000000  7.4924524500000000 15.9998380699999991
 -1.7045507099999999 10.5959023899999991 16.0396843699999998
  6.3999974300000000  1.9880925800000000 15.8497649700000007
  4.8086339499999999  4.7842580600000000 15.7489524500000009
  3.2320690900000000  7.5810130800000000 15.7941944400000001
  1.7373062300000000 10.3651306800000000 15.8278300800000000
 10.0334876099999999  1.8763986399999999 15.9518427500000008
  8.3411590600000007  4.7092837699999999 15.7116560100000004
  6.6933613000000003  7.7602570799999997 15.7378888099999994
  4.9467087899999997 10.3324976399999997 15.7380619300000006
  1.6602906200000001  0.7655385099999999 10.9610472699999999
 -0.1499294300000000  3.5358366200000000 10.8761022000000001
 -1.5596620600000000  6.6818343499999999 11.1297079599999993
 -3.2192432300000000  9.5206973900000005 10.9719758200000008
  5.0019821200000001  0.8112145500000000 11.0404359900000006
  3.3895471200000000  3.8447558900000001 10.9586335600000009
  1.7540465999999999  6.6089694100000003 10.9399165000000007
  0.0335051600000000  9.5261492499999996 11.1181912900000004
  8.2801627100000008  0.9516270900000000 11.1084530400000006
  6.6654007999999996  3.8419823300000000 10.9134116700000003
  5.1219668199999999  6.5436282800000001 11.1572862799999992
  3.4774795799999998  9.5585491000000005 11.0597466400000002
 11.5342493400000006  0.8170417300000000 10.7579762799999994
  9.7153916099999993  3.7917302099999999 10.8900931100000005
  8.0951112999999992  6.9193676499999999 10.8897753099999992
  6.9138812300000003  9.2566929299999998 10.7256405899999994
  0.0824148200000000  0.1356978900000000 13.5198944099999991
 -1.6027932300000001  2.9163585799999998 13.2401323600000005
 -3.1405121600000001  5.5944076000000003 13.3745294900000005
  8.2038176099999998  8.4921460100000008 13.4542637200000001
  3.2235866199999998  0.0360712100000000 13.2283785700000003
  1.5907113100000001  2.9386648700000002 13.4594051100000005
 -0.1988275000000000  5.6691662999999997 13.4705516900000006
 -1.6013220300000000  8.5448818499999994 13.5861010300000000
  0.0026249600000000 11.2985465099999995 13.3577163500000005
  4.8651048399999999  2.8039588400000000 13.3793336299999996
  3.3263983499999998  5.7467769100000003 13.3154040200000008
  1.5999227700000000  8.3928714099999997 13.3735715800000001
  9.8115846900000001  0.0033238400000000 13.3564813099999995
  8.1177380899999996  2.7652214000000002 13.4769757699999992
  6.6436319099999999  5.7788808100000004 13.4207396699999997
  5.0535049299999999  8.6942646000000003 13.4504657099999996
