Ca Si  O 
 1.0000000000000000
    10.2628755900000002    0.0000000000000000    0.0000000000000000
     0.0000000000000000   10.2628755900000002    0.0000000000000000
     0.0000000000000000    0.0000000000000000   10.2628755900000002
 Ca  Si  O  
  27  27  81
Direct
  0.0269210736871068  0.9346548543710839  0.9689666324796596
  0.1523515087256358  0.3565518998949494  0.0968939281470916
  0.2638112258359745  0.4954704844083567  0.5229007915899329
  0.0390048886873430  0.5710202777582341  0.2918878528469037
  0.2379146525345339  0.8196157905486214  0.1917253515103753
  0.7250777985899759  0.3064271735949203  0.9683109030068638
  0.8261576675704397  0.7006070634828772  0.0817301586328593
  0.6792330199142558  0.6288277776930550  0.6194047724980752
  0.8105800705706498  0.3976004731048289  0.4320564827191869
  0.1131481084240640  0.7217464447505789  0.7172631613280621
  0.9229919311532842  0.8195358938381130  0.5121151517339986
  0.6482145000843765  0.1568061910024576  0.5030698623133167
  0.4901815213371402  0.7218366621552313  0.4075849037940057
  0.9489007836642791  0.5227668534954929  0.8024534856511887
  0.4706520007615136  0.3905685521420220  0.7219478541881067
  0.3631984561551135  0.9372632802226144  0.6149672442828472
  0.8174279281115207  0.0261960975403386  0.7366218750002406
  0.9519840325765850  0.1896749066993221  0.1713657945647961
  0.2894373856479732  0.1284038209801587  0.8020188472342186
  0.0468761562761963  0.2711202270357055  0.6221368625204196
  0.6991160583678088  0.9452765850004813  0.2774106657566917
  0.3941667853736499  0.2557879998621322  0.3118504937464608
  0.6042268607486843  0.4780749836605980  0.1733526119846494
  0.4166853843738352  0.6213574990827693  0.6922204149996911
  0.5671189121371781  0.8241042908325853  0.8609808481562232
  0.3961676719497289  0.6019661639491822  0.9591675962233894
  0.1862531532451325  0.0408899587956517  0.4198397449344897
  0.6486228047513534  0.9058697904375551  0.5952399623700398
  0.8781510582454601  0.7774847059214912  0.8076359503058148
  0.2911337854383949  0.8539267735584037  0.9127249724363072
  0.5537466658504042  0.1205940498008122  0.8044772098810954
  0.3470304008625325  0.2246415782576976  0.5760863910072985
  0.1985304033097024  0.7555160453815849  0.4317042422610133
  0.2545346094368859  0.0996827508068818  0.0836140409649066
  0.1854711472732566  0.4313838340117694  0.8040761098225493
  0.4910516156807470  0.0511416907861006  0.0635342486890655
  0.5599051210948178  0.4419172570326364  0.4575138642989241
  0.8744740956174838  0.4412648346251657  0.1425197964423536
  0.9780919306652143  0.8536151289348329  0.2333225380158779
  0.8833653015177981  0.0918946304794873  0.4449553636263070
  0.6575120696752010  0.5719004258142820  0.9027261500692128
  0.5654889683798652  0.7945729808851751  0.1118614212880661
  0.0705736704735792  0.9869066375382224  0.6943507662651107
  0.7640350485823243  0.3357602973729510  0.7117111335849293
  0.1164574528375434  0.3034662646631576  0.3535676183715679
  0.3358977013575978  0.5505565765121002  0.2302650849926166
  0.7499004837882869  0.0221265841146185  0.0186675565069380
  0.7439128831922243  0.6709852925343704  0.3509417909644562
  0.9994074535984900  0.2104678899259657  0.8896222330607050
  0.9822008248664739  0.5492981777439631  0.5477195461160218
  0.4264055363064184  0.3338192546481020  0.9954110853642337
  0.6500499301093058  0.2179741935271769  0.2212980650581968
  0.4434610962676592  0.9730186771171802  0.3684242605146888
  0.0993884658403035  0.6256432988680515  0.0292151792517247
  0.6620606301240372  0.5523834826102574  0.3787055047015336
  0.9854344370942532  0.0466929425186572  0.5577746441336331
  0.5582999267362259  0.2562705907263171  0.0622785080453265
  0.4348593326366144  0.6525915189428892  0.1984128495120927
  0.2494816611140465  0.6345462480657432  0.3527382426351716
  0.1217313275450122  0.8888989016771273  0.6013656100453616
  0.6230650214868287  0.6940748630862045  0.9879243795841434
  0.4285260082744509  0.1443580872639225  0.6700047125875761
  0.6344685710060333  0.2670214498819624  0.7313135898590777
  0.6941879405555573  0.7660688352941439  0.4659998007439550
  0.4408685178263961  0.2036960929388018  0.8867327690172262
  0.8881889427639452  0.7462609590106120  0.3094253186791286
  0.9416867003061858  0.6931226309448033  0.6854821427295505
  0.4423694607019981  0.8268743935928390  0.0357198737123150
  0.6357963060916342  0.7077958011181542  0.2374092746845818
  0.8082805259846280  0.9089003445670728  0.9194213948373509
  0.3977137454513370  0.4322036451773844  0.1303570142956395
  0.4607896645076646  0.3235841612691712  0.5205415571056338
  0.9677408405571445  0.5718478781637457  0.1022212255035238
  0.6017352881113899  0.0247268611779011  0.6656116436465542
  0.7441358976855726  0.0979578726433729  0.1442338287177853
  0.7517473608973175  0.8185887372722210  0.6990766493350817
  0.0989177498155758  0.8611942990531760  0.3806955814418091
  0.1769687193489598  0.1789118112070966  0.2744129640180116
  0.7832494079761129  0.6799978533112082  0.8763562503635495
  0.6692877975343361  0.0940317849063978  0.9174066193664148
  0.2837383191936365  0.7293127169243996  0.5793610843137971
  0.1275515471780166  0.0002382266040896  0.1668783193346690
  0.2678252324015554  0.5628430773952312  0.8061959075156244
  0.7652709331927116  0.3115789723803911  0.1679415934535362
  0.0085078201751835  0.1090562425886330  0.7692122145270983
  0.0890828425213328  0.6644714826948419  0.4993971343659248
  0.4819670682571336  0.8621291656912700  0.2588341266251284
  0.8550208012411461  0.5276876088488178  0.2816336127874663
  0.7550683433745103  0.4688590987781818  0.8057626790348728
  0.2286091056473578  0.7413755806816713  0.9962616958898554
  0.7460203597771567  0.1928153978528351  0.3471676050980951
  0.5435267290422255  0.4368743205236497  0.9688933489254156
  0.3184056019527369  0.8486114621214071  0.4236026513111030
  0.7721930603662321  0.9746158863843345  0.5088033986388799
  0.6130043509569622  0.9364569662487744  0.0823348507530724
  0.2189357651562451  0.5630584809612800  0.1311721659484718
  0.1494269024847450  0.1592224835690520  0.9765391758003373
  0.0084711335763157  0.3703184255398345  0.1878687014269848
  0.5561532359957215  0.6094809495785771  0.7940465260964934
  0.2927834059420767  0.9541047120887880  0.0522224863099992
  0.4061163163724954  0.1056146594095076  0.4517132415126549
  0.3158223337675674  0.0436481613824182  0.2757885326757625
  0.1047543790794408  0.5161206061156199  0.6762534631875042
  0.2554865326979960  0.3308794908620733  0.6584433885746831
  0.4458105108921037  0.0165197880957651  0.8910635581425771
  0.9511360684827322  0.3043746601628637  0.0041512741362190
  0.0677757597176524  0.7433691895703862  0.1606624298950505
  0.7710980427075410  0.4947781725959713  0.0340600630821834
  0.1230022929665077  0.4850504847637932  0.9351272278260171
  0.1902838227818759  0.0889191223256366  0.6215958679471822
  0.0574330883026908  0.4233631326714737  0.4467171885496860
  0.0736710538259580  0.3162083474111372  0.8145455819561387
  0.3536938851267903  0.2175840260770422  0.0905040319211353
  0.9625607300185541  0.2269016222187294  0.3835430504327102
  0.8559156274445299  0.2641830991931570  0.7960749692767151
  0.3473162934444186  0.7542127858923018  0.8034968715819735
  0.4280900651549260  0.4626230035007177  0.3363887849682099
  0.8305985895713269  0.1708914801333960  0.6030112160796446
  0.2017409420822961  0.4002911468597467  0.2641210288704279
  0.6010689709627475  0.3175146596510579  0.3462641526574327
  0.5717779708562168  0.9739891039641844  0.4522919204557950
  0.3070935998747696  0.3736287531085622  0.8936760705680541
  0.9030850865064418  0.0967125413628833  0.9823931237969922
  0.2266235188767401  0.2523073623267024  0.4621753307252164
  0.1832188935265072  0.9750144384240753  0.8380510495889194
  0.5688296704764011  0.0813954785551483  0.2382072401210897
  0.9719035705469368  0.7168491798895518  0.9387257835793370
  0.6547997626072753  0.3964395723518656  0.5677326991742282
  0.8647110531717943  0.8926485164573645  0.1356463447102938
  0.8516043299322505  0.6034169113415122  0.5028186266847262
  0.4985400646369912  0.5544228398855607  0.5370674799342472
  0.8605842448880354  0.4354459060533150  0.6210368628272537
  0.9678131088014096  0.8795097602854210  0.7524625152354595
  0.5207735768723277  0.8007824695846284  0.5905926683848653
  0.9422599412023078  0.9860249918512362  0.3537566852644660
