Ca Si  O 
 1.0000000000000000
    11.6281733299999992    0.0000000000000000    0.0000000000000000
     0.0000000000000000   11.6281733299999992    0.0000000000000000
     0.0000000000000000    0.0000000000000000   11.6281733299999992
 Ca  Si  O  
  27  27  81
Direct
  0.7435571714168798  0.2167102457527609  0.0665110200932996
  0.7022950577225358  0.7036306965678848  0.0730316143300901
  0.5336256146088941  0.2426068187960181  0.2292849318922218
  0.5702957998476963  0.9563098850023766  0.5576879339482637
  0.5772612266349835  0.7376593155754070  0.8236304222685681
  0.0208212058015479  0.4833055399596456  0.3300569970090049
  0.1448423292465662  0.9192784495585088  0.2086740480329596
  0.3986402058559614  0.4795494796773898  0.1388568018533312
  0.1276585047257805  0.0396147199501712  0.7067336757698641
  0.3368479630325566  0.6862279898608977  0.3746544041238505
  0.8794157620283770  0.6759784909398148  0.8677185352894977
  0.8220018775726318  0.9453331772790147  0.2187031133633782
  0.8011929892689346  0.3891828425299196  0.5688192850493055
  0.1216955389157413  0.7671421991092732  0.8166126519202823
  0.1648561898414702  0.2936052545064703  0.5630022286570096
  0.7356524526453718  0.1816221705735445  0.7137651456043441
  0.0327052400413436  0.7428366197221108  0.5113009577059685
  0.7977685468505139  0.6919310902635126  0.6000260059762973
  0.7697075083073260  0.6920646211248040  0.3117280674384306
  0.9691121485888620  0.2772963472844965  0.8452264436618956
  0.2869048151692800  0.4332909242934376  0.8170480857460698
  0.8783993358310218  0.9668858952242674  0.7310057288249935
  0.9970500680522624  0.1815119460383895  0.2377365370765419
  0.4833664755838311  0.9826539401954375  0.0882683703511668
  0.3288712871293260  0.0938974617090611  0.4609268728538983
  0.2539053767269567  0.2335455107977824  0.9643282742501054
  0.5181734842612636  0.4816877647970182  0.6789848522149611
  0.1829688214666473  0.6417740394999771  0.1616728403204840
  0.2832304667753005  0.8758757339576053  0.5561797821945608
  0.8500770430122236  0.4766908707577719  0.0674754389819540
  0.3729166574093371  0.9102425169990135  0.8226230499438213
  0.5299499530249950  0.3711647726186758  0.9470802659595374
  0.5828769814183705  0.6583378113439251  0.4903774976666950
  0.7504232885389920  0.4622445819699525  0.8389150215737282
  0.0538700320525752  0.5109224279167157  0.6697378426504760
  0.3259379261420074  0.4143002089219804  0.4315242641812255
  0.0910805231349265  0.4163296592346204  0.0694040927234785
  0.9275363742793471  0.2019671184244379  0.5405350377590218
  0.9545546600482262  0.7375691122416388  0.1945450119980281
  0.7973422769748136  0.9079762487510152  0.4708231572258479
  0.2258229281141959  0.9585440510457200  0.0008112976761071
  0.3162097464193889  0.2264445906741571  0.7127525291197221
  0.5327685401813667  0.1347164903328802  0.9150047946524719
  0.5735037491051916  0.5209449186977333  0.3213252730211926
  0.9973560077642910  0.0839399063206087  0.0049284516470138
  0.6326387448165086  0.0824993748179707  0.3300480575137764
  0.2594054847993911  0.2185594080751461  0.2398592126937275
  0.7399579577818352  0.3672114233955954  0.2790607396286550
  0.4075349150303731  0.7814112812162562  0.0719121667925808
  0.0551629883556268  0.0120161607532556  0.4535211834514339
  0.5615466638387304  0.8391189168832247  0.2823156231710557
  0.2921737889161651  0.6464107368100266  0.6813962765379591
  0.7080865168011734  0.9525172377181963  0.9033031020358896
  0.5461375428259119  0.2476393830981878  0.5465132432799744
  0.6106599298515961  0.4553947795341300  0.8614051722257912
  0.4943700877909085  0.9269427255776899  0.7743171256976783
  0.3158602057061013  0.7555091062613186  0.7837486612353413
  0.7228782321565206  0.2250258923514000  0.2649453385813952
  0.7152437338152408  0.5927783293543322  0.7724225409357569
  0.6470919641855735  0.2225269099940395  0.9065971095221025
  0.3184351552833278  0.6702738950314564  0.1585379377897526
  0.3300497164157769  0.7136700825218951  0.5749470875835320
  0.9537569500608744  0.7961634176982122  0.7395017528518387
  0.3252723426681154  0.2993352783123676  0.1543631058000406
  0.6278960669740895  0.3614949279398126  0.5870754095475803
  0.7879042597656223  0.2191098694260692  0.5442089415431857
  0.2851173744930753  0.1692024098853023  0.6148154148644773
  0.9102183309130293  0.6194236906855602  0.2476509902523099
  0.7316937345652725  0.9385004609318118  0.6100084784339899
  0.6752010936871717  0.5607521822174284  0.4346917659852255
  0.4061528398287129  0.4404120685738007  0.9441956813349291
  0.5583311630942124  0.1321515904854507  0.6280928812057879
  0.4360807072696087  0.2220422087567902  0.8741040369407704
  0.3362522606979406  0.9656811264611586  0.6733104011960923
  0.1417430918188765  0.0904280784400726  0.0254239897884288
  0.4391963324819136  0.8441852147726800  0.2085533489377390
  0.9773801952778426  0.5417970192915933  0.5535586963941481
  0.7170471357258312  0.8141903583062603  0.9040099637042477
  0.1128642128694516  0.2992107110257533  0.1524145185751200
  0.9970398583661292  0.3194097331192775  0.4872781372618223
  0.9751600864724985  0.5474291695994181  0.7756372040594618
  0.3705470126493204  0.8923742608160797  0.4451255320254158
  0.1789883665244608  0.5059602951412147  0.1320647376349351
  0.7312933131174784  0.0417355818689022  0.8017158297725514
  0.2667954382823085  0.4969643611254977  0.5260312833675314
  0.5542919388182185  0.9537234280287428  0.3677455313611154
  0.9291979662982889  0.1988778610681408  0.0351100149966547
  0.1492056775180526  0.8620607042499254  0.9662044975726209
  0.5338341649917597  0.7308788929103451  0.3831439671186946
  0.8150986093015180  0.3704713266430129  0.7613671630744431
  0.1293059965077077  0.9014786151282801  0.3989314278651194
  0.9868707994224576  0.0801517636132450  0.8644347667287483
  0.9541550108627423  0.1055959379993177  0.4042930386900244
  0.4723230024298237  0.5675903929787741  0.5299993941524778
  0.6882130875494957  0.8228145202579296  0.2445059390940469
  0.5729548038995391  0.3732423594686820  0.0909673789666498
  0.7555241713962308  0.4374662404520591  0.1520509877022963
  0.9764947982590833  0.0114783643322248  0.1265907600639455
  0.2333979734373293  0.3253816590640725  0.3762573704256952
  0.4077352586212267  0.1180788814402718  0.2891782100740323
  0.1449841546178604  0.1071912573563263  0.5176605705102609
  0.7604842720382807  0.7857636836584720  0.4558300000848027
  0.5675188340179309  0.0079837802004969  0.9221217129896361
  0.9558873259416749  0.1184900560817492  0.6369889603288189
  0.3926287534965736  0.5680803185963518  0.7603184179573973
  0.4275499770177575  0.1362658024637478  0.0436313491037375
  0.3881636635356209  0.3489052437439029  0.6839555615740035
  0.8422615420370588  0.3801770471200914  0.9565771462403890
  0.6097763869503656  0.6199823829079438  0.2192967276658234
  0.1074380596629789  0.3914577398202578  0.7004832753039124
  0.6251775686250457  0.0534835465855582  0.1789620175880196
  0.8535915468676627  0.7904468267846160  0.0918267117024476
  0.5072244679035930  0.6824209344667552  0.0264778956472607
  0.5767093660961107  0.1776527345589542  0.4284997581817093
  0.4209869341533113  0.4848534494626424  0.3365715507441615
  0.9729314096834160  0.4745309364940469  0.1223696465143765
  0.1631775297934951  0.8304871079867194  0.6092195514254517
  0.0685436497531122  0.7150957570048537  0.1088843719532000
  0.1567775323142694  0.1396051051124124  0.2577452094102901
  0.5989028398839666  0.3867912734321102  0.2956987613118079
  0.1519896857265027  0.5979790163654192  0.7014335500965568
  0.7721376466616534  0.0106031193809183  0.0110198271356521
  0.2007062729258440  0.2174278812543294  0.7943809477081470
  0.2903833383089071  0.0173426104235754  0.8728644888543299
  0.4165500429464273  0.2994068501729154  0.4865065225167228
  0.4156326684201568  0.8466745343913791  0.9514611982482378
  0.1272210465063647  0.6439630256182293  0.2998796914218341
  0.9772262914832215  0.8255497013648316  0.2989943735212623
  0.7435328821332595  0.0221687983730803  0.3786511651525236
  0.5972033244537128  0.7379820128635803  0.6293061543140930
  0.9343620052488503  0.9306247372561312  0.5019723962095429
  0.3069484396824003  0.9200939387786027  0.1046531243957644
  0.1121040797213504  0.3815772137273430  0.9325329303463351
  0.8085945387262300  0.4353167566689514  0.3759554029626767
  0.7855047728291819  0.5674649992510905  0.9742343692773284
