Ca Si  O 
 1.0000000000000000
    11.1219476799999999    0.0000000000000000    0.0000000000000000
     0.0000000000000000   11.1219476799999999    0.0000000000000000
     0.0000000000000000    0.0000000000000000   11.1219476799999999
 Ca  Si  O  
  27  27  81
Direct
  0.7674873048854335  0.1155154436043885  0.9143967381080145
  0.9191489255414299  0.7145937356180765  0.1370330740487713
  0.9929711825438113  0.8280239805983335  0.4037387244749204
  0.1886771832035808  0.0435155652521466  0.5221295960996644
  0.4400688063657570  0.4865976999453031  0.2652322007686337
  0.0066790262045182  0.4083861541776287  0.7584013926956361
  0.9320565721273021  0.5475164436306718  0.5136343835057494
  0.8808273732141851  0.5813467214584128  0.8885881541927915
  0.6490333633721966  0.9904577819413010  0.3715404144033880
  0.1037386106459368  0.7190117891293658  0.9039882706946882
  0.2806296612609132  0.2230982451447748  0.6870468545487709
  0.2166474352628855  0.0996243717269492  0.2500808365608136
  0.3629784347268211  0.9069903860579929  0.4044345342577623
  0.3540682921105056  0.7175334392509928  0.1330080793906414
  0.1145442674839125  0.5824052878479284  0.3252192758022397
  0.6424888837455851  0.0416953157254917  0.6823688348801871
  0.4991601803686960  0.2109763161554452  0.3508362637792952
  0.4055037300804853  0.6938954274958430  0.7679614619442267
  0.6883805975609480  0.4061658650061191  0.4323799075810793
  0.2125266714076109  0.9502226142462845  0.8395177201552885
  0.6365804896503523  0.5439196068938889  0.6923452107086338
  0.4336195834361271  0.0771343513459146  0.8287695595417510
  0.9029389652730321  0.1108351743298256  0.3295749292717406
  0.1008678886358509  0.0190835864460747  0.0084118890586257
  0.7459167340733255  0.3338440610251099  0.7582824450042729
  0.5003471721061000  0.3453119768677063  0.9076409438746793
  0.9453976616800628  0.2470935495355612  0.0489866348660975
  0.9800090392081398  0.8974971693087482  0.7655448321619869
  0.2423147156901569  0.4033706486560275  0.4904098946453594
  0.6778357232840354  0.5954800220746946  0.1502866699333367
  0.4809169889927049  0.3536145406503117  0.5759967565321256
  0.7433140541441570  0.6601194602994211  0.4014020896742790
  0.6996011124914768  0.7907620736083161  0.7929449673512580
  0.5469265262718804  0.7462832948698064  0.3264290432267166
  0.4152002277716163  0.9296516120636884  0.6193457151742329
  0.1314478400783126  0.8623613170962156  0.1772452026136487
  0.4310758410257150  0.2218038639433700  0.1117704304827300
  0.1979738183771064  0.2459943994269896  0.9470122062289722
  0.3303689412788174  0.9159970522357286  0.0550899147908957
  0.6766719819706973  0.2560449753886991  0.1809419004567732
  0.8517618156966551  0.1752826290943314  0.5660098528713812
  0.1331385808137519  0.4779580207483947  0.1016120802323357
  0.1158013701427518  0.6994134511159650  0.6540820546280434
  0.9943241551015819  0.1472757926154891  0.7294484926043097
  0.6306870236958353  0.8688843274616086  0.0530378299711620
  0.0694146378145882  0.3415049440333278  0.3208189125378083
  0.5723253510216116  0.5862395596164143  0.9606978523387550
  0.3274078978584082  0.6603768801401159  0.4656642900157933
  0.2994238478561158  0.4972492326991418  0.9641391731488526
  0.7667637427691980  0.3936467510877555  0.9850760078382241
  0.8626087341924989  0.4419936382941158  0.2207860188387435
  0.2971313815783028  0.4885239974443037  0.7135454803721932
  0.8440967958230854  0.9570016535089473  0.1297482205023284
  0.8320999726191841  0.8299924667511113  0.5798930641975470
  0.1760242231242001  0.8112962297265546  0.0527200897603935
  0.2024627479635833  0.1241832995207904  0.8802368012937820
  0.0914179745538957  0.3691297538993638  0.9771077218374399
  0.3578310377378074  0.2401237541157000  0.2298731187701469
  0.0328728555932211  0.8907402637592698  0.9078188515628764
  0.6446673412151854  0.7607838764801670  0.4221717162402619
  0.1908735314244888  0.4325787783241936  0.2240349893463984
  0.5024897257923443  0.4244069497367029  0.4598284335752243
  0.9822009583486909  0.1700844829005705  0.8784212739616124
  0.5142292163704909  0.8831553287796081  0.3030469722547733
  0.8515644572785833  0.5015566167453864  0.7198518946818134
  0.6422233951742524  0.7024092258632167  0.0320894235675815
  0.3283470786836141  0.7033785488909978  0.3302988006863201
  0.1947518080754000  0.4139518520015192  0.6563136295926182
  0.7560815849836834  0.7038543036915276  0.2551460510017433
  0.3036438919842140  0.2744040358585826  0.4769027622327387
  0.3205159718931531  0.8203083140200493  0.5670565679194060
  0.8601055296458650  0.8526054179388119  0.0113402700344298
  0.7473992325056504  0.5159402566080045  0.2992795143233402
  0.7228670014746913  0.5826466178808710  0.5196458503750127
  0.9490963762562853  0.0948281857049700  0.5201633307809266
  0.2438768018013190  0.5733952436647319  0.8522198469827722
  0.6228044978539226  0.8786033850502701  0.9131208293905587
  0.9142193186436568  0.3741739819081760  0.3390307371055714
  0.1266266035878349  0.9527840684825087  0.3870998294428229
  0.3266121352586690  0.0399976373562656  0.6420312228981822
  0.2597838744733242  0.5679297549078202  0.1110639597973725
  0.9278529810526854  0.5860311464799122  0.3201189748808457
  0.3721474339825342  0.4605818232009521  0.5879258056355108
  0.7940985917315518  0.9297447693082476  0.4890431511182941
  0.5994872995122739  0.4795290306562564  0.0727729965368799
  0.0048231273463426  0.9415850542825066  0.1567551700620839
  0.1049790237819209  0.3975019247707880  0.4492366700290034
  0.8367835326842681  0.9190636634967518  0.7891881829100638
  0.5702062320796675  0.3462876584940022  0.2299891685877810
  0.0446122877283667  0.5971714506393002  0.0518062129563983
  0.0798298612388365  0.2096731810916053  0.2994203691488683
  0.8165341036741866  0.5429153232628765  0.0880353961528436
  0.3888120466324653  0.4100698475862637  0.0753301367805032
  0.5779019336296680  0.6913276443321661  0.8326229844303672
  0.1593366702476701  0.2149172481991032  0.0697062189380844
  0.8037164116564158  0.9334692851207514  0.2579458465857483
  0.6893076519129965  0.4882366502914532  0.8989208821741194
  0.9243371921706433  0.0858578971484606  0.0944223458170413
  0.8619892248944656  0.3340586241635691  0.5831432620082241
  0.4935821115101667  0.9384701160543492  0.7253532350729418
  0.6072486757103680  0.3584975073358734  0.6444192614651825
  0.7346782600581340  0.1980262237665912  0.3072709320639422
  0.3218724510309870  0.5062281015873291  0.4229322988507351
  0.6909275273627253  0.7839211342163047  0.6315239364621790
  0.6842361346191839  0.2570082203443705  0.0104596203243423
  0.0767275224225834  0.2382409454024693  0.6310579991867036
  0.2788450520745481  0.8926740698352215  0.1989969125623508
  0.2533865444330161  0.6456169491709027  0.6321042844538898
  0.0548484399991351  0.0016607369978205  0.7115047622666033
  0.4585021451926125  0.2406784627132862  0.6478937428340789
  0.0373242917467132  0.6116044811316717  0.7401586985347156
  0.3601835195829657  0.8572058235037481  0.9230674541349757
  0.8419621777972615  0.1202284778235893  0.7127224671497465
  0.4159998844734720  0.6069536383577018  0.9586701616276618
  0.6934608552303494  0.0034113611295104  0.0836171259528889
  0.0647732816883742  0.7632976789906999  0.2597411031877827
  0.9613716425970456  0.8406688584602297  0.6323019422799514
  0.5409245028924645  0.6418424609960042  0.2064067595038354
  0.6219405475570444  0.1424814012432038  0.8383993153256768
  0.1528154913960178  0.8101185888693192  0.7391807547147174
  0.8595200072007532  0.7209785112026349  0.4702041333465434
  0.8345015043264435  0.7344503710163111  0.8323661166512518
  0.3869168138363334  0.1715329755983891  0.9785846825706340
  0.2829408922376804  0.0455915973163434  0.0540871012261406
  0.6828583417684266  0.1725830731474903  0.5161982330058937
  0.4846667350983259  0.8702178277105507  0.0791103595624899
  0.4449641323973572  0.5183441934695381  0.7865759093374911
  0.1082059145237770  0.6502618954956277  0.5050909140763014
  0.4544189754721090  0.6584632674697135  0.4661087058809110
  0.8888067130342767  0.3889725329116096  0.9307735486488100
  0.9846755860660549  0.3996656483102607  0.1391507265209505
  0.5178739727716467  0.9613705924212728  0.5187298237677018
  0.2775601431349298  0.3698722137847711  0.8664251556702162
  0.7734454402684261  0.3818232023907525  0.1307945444318076
  0.5350251746553801  0.1202636632075939  0.1587147953567787
