Ca Si  O 
 1.0000000000000000
    10.2628755900000002    0.0000000000000000    0.0000000000000000
     0.0000000000000000   10.2628755900000002    0.0000000000000000
     0.0000000000000000    0.0000000000000000   10.2628755900000002
 Ca  Si  O  
  27  27  81
Direct
  0.6085979270844888  0.1510099198230659  0.5029037909247421
  0.0948464737259862  0.2450878077924747  0.2354689023371470
  0.3125632608394506  0.1340210029770029  0.0935202469895672
  0.4865127610886297  0.7197438120751886  0.5490147162545892
  0.6981480947680474  0.9839650341118478  0.0741452854345670
  0.8689203081336389  0.5048894761083234  0.1703565364958302
  0.0919840898120056  0.9648211276816228  0.4418419321401907
  0.3583608909362215  0.9860138965204002  0.4753868550013281
  0.9552587716792151  0.2388543569980078  0.9201265373616403
  0.0612738578466973  0.4218267835399143  0.4164679336232702
  0.0492292199753734  0.9677014071647730  0.7101633383436543
  0.2740166365009984  0.4707546630213024  0.1989765618897072
  0.6719149988253925  0.6543649419801648  0.0598589269267367
  0.5214906624430785  0.1413665602079076  0.8744859909190421
  0.0183312774621679  0.3975835236642482  0.6653092917401330
  0.2801606951955656  0.6647539581058100  0.9922889194840178
  0.8493103227805960  0.9583212135576518  0.8548507241526446
  0.7606044467308991  0.2888433357692101  0.0671677010945818
  0.7416948294118413  0.3617698370637659  0.4326094213132715
  0.2981497323207832  0.4854044430640905  0.7779720683528232
  0.3551965799480183  0.4696311601688236  0.4787446410036819
  0.0876135749785504  0.6771126580518161  0.2096759569117996
  0.6102664652880198  0.9655270234061173  0.3204069016683851
  0.2495719106734295  0.9326725600500044  0.2541391666621577
  0.4976297486229199  0.3239851872743982  0.6585424495046422
  0.7859599026864946  0.9231086372352683  0.4956869110794707
  0.7346855161478189  0.7430807275332079  0.7599379980401769
  0.6842416336842684  0.5315143238523853  0.5998651933380789
  0.3394904244376600  0.9854107643918151  0.7511812700440228
  0.4382774360416855  0.3815355253663364  0.0234847180876720
  0.2122580753217530  0.2354147761816530  0.6091402331809812
  0.5563722321221278  0.4667774950587704  0.2666371930559474
  0.5194891132846715  0.7620615685549785  0.8788092373240978
  0.9418513481171411  0.1582570202431929  0.5457201357343942
  0.8433569055863417  0.1308405074410534  0.2770464500973260
  0.2144412207573102  0.2749212202035473  0.8679722600047615
  0.1691804645563281  0.9538262774556348  0.9503683216723083
  0.4407889260986355  0.9099237019982233  0.0593679504985600
  0.9578165372654587  0.7487725854815707  0.9864925469685052
  0.1160077699041853  0.4590849346932403  0.0206375209504026
  0.5520014113315389  0.2187102240805786  0.2013048031112301
  0.1972969020469242  0.6902143563839109  0.4845832775022463
  0.0141995777618113  0.6630784871474799  0.7141883564428944
  0.9420195076144346  0.6646479770880668  0.4786485626685844
  0.7428785288432012  0.2426594893566278  0.7465630556279598
  0.4291265758196724  0.7195543086574627  0.2709467191348853
  0.2739519976973627  0.7303830309805012  0.7205873397906015
  0.8345586658329550  0.5006709021209134  0.8833870147304398
  0.6881394398740831  0.6577786294688972  0.4132556468025936
  0.5973826055120288  0.4720106794162161  0.8323132659157568
  0.3696380411837381  0.2334586480162136  0.3656020680652137
  0.9803803682277709  0.9723336205812859  0.1412450484552741
  0.6052331937115492  0.9739870519077393  0.6822025619039975
  0.8447705405732195  0.8248253996422068  0.2377708185781486
  0.4792180385380663  0.7406025478284104  0.0336069210793191
  0.0817763805709351  0.6333005309284861  0.9912107060824265
  0.5296944226135747  0.5271137842956157  0.6614011599842458
  0.1598191837771269  0.7889052730882806  0.6162282846108242
  0.6789340549727935  0.6952709235755240  0.5865218151787028
  0.2758833248216351  0.1082806246899072  0.3384680141094841
  0.4526582544298386  0.4257362112288843  0.8821157910967135
  0.6893812224415751  0.5469804121439223  0.2741376844460023
  0.2427528374627798  0.0572918013907250  0.6345371658159212
  0.2771521017726767  0.4864992005617794  0.0099661599814833
  0.9333315965881255  0.3273296719365181  0.5013276011075566
  0.3569302957905193  0.2038722043984166  0.5263654589424873
  0.4941434615987584  0.3267469980116947  0.3802436983453680
  0.4904778076921031  0.1186210033751369  0.3271702195505227
  0.0641943190504953  0.7590193140010576  0.4143548231397785
  0.4426728737145297  0.9565235604692739  0.8906367547616350
  0.2695361524888172  0.0906981646456849  0.8754774567037308
  0.1306388358937517  0.3925500357741353  0.8343489565773835
  0.0450678999217996  0.0435343209690024  0.9524989496632883
  0.2947823797988767  0.6408644158571546  0.5954881432992213
  0.3884076304972532  0.6911919206067274  0.8271054136397262
  0.4648668970175054  0.0422114451452685  0.6880783643992316
  0.3383047245923012  0.2633098907126088  0.9602280056480739
  0.2965371141169607  0.8991126121601948  0.0325797508766254
  0.8388455520583779  0.6533087730823793  0.9456260036374464
  0.8877940475940234  0.1549279152861679  0.6962009377724514
  0.4046173378586186  0.3125645129251732  0.1859039070744499
  0.7921111357835334  0.1372466837045620  0.4532739317752950
  0.8243621688490136  0.5503625509699860  0.4829151816698579
  0.6270322682533853  0.3207209325627224  0.8383417712267133
  0.6443939305319007  0.1222527330666005  0.7008322420870348
  0.8981131515402109  0.1040975885005345  0.1232374931283757
  0.5599762356663236  0.2768091569548102  0.0408087749215325
  0.1175089154520288  0.2858273029109183  0.0328279766275526
  0.0503830837142595  0.5973804940180513  0.5924957811945960
  0.6448603719262274  0.8601163292480291  0.9303628204656040
  0.8769776921752590  0.2891064754688311  0.2236506094097551
  0.4438514615181065  0.5785418675235057  0.3251345279145102
  0.9870910848681543  0.1328087423497648  0.3562198769672507
  0.4540578202604910  0.8836999991344531  0.2181091225719516
  0.9633313814729777  0.5860105325509456  0.3304967053585807
  0.2086868316017460  0.5938563715941918  0.3766924860481525
  0.2124714609348587  0.8645280196756239  0.8298983998499392
  0.8390360844274837  0.3516116402615381  0.8060565255278516
  0.4958943295540817  0.5042976234694861  0.1211219953997318
  0.8272786740465592  0.7587899543075335  0.4009670860679312
  0.5710156796317551  0.7632373325885752  0.3429131288923673
  0.8226418966070698  0.9559977117485451  0.2975452009742233
  0.5935149984605825  0.5072699142015030  0.4515987755435706
  0.7115465783406228  0.4780536134317497  0.9884868408504209
  0.2590434276130595  0.3508614967045508  0.3613975417975421
  0.8870921877754148  0.7518164692085096  0.6298091439691709
  0.6586874176460713  0.3425254081249172  0.2365270492380586
  0.6798890680112005  0.1351173077993046  0.2366791196774120
  0.1113805736000352  0.1872108283054808  0.7382309064900202
  0.8989386560419175  0.7030679946106606  0.1515000426893024
  0.0188355581537357  0.8685877697558644  0.2538326239225122
  0.5779042255738774  0.6235329429731497  0.8729103935284087
  0.8789740546781781  0.8864000494036974  0.0378056711881080
  0.0828758862505124  0.8465973979520880  0.0414206463161462
  0.5765324190196093  0.9650134538949429  0.5141594277087013
  0.6968070417776545  0.3327898784360105  0.6163069769805132
  0.7527717053812595  0.1402207897172804  0.9032723780684552
  0.9601248220918948  0.5383995403183096  0.7860039215383298
  0.5108641232198743  0.0662686148765835  0.0965574893030541
  0.1751182837830737  0.6411691559831136  0.8041443733412733
  0.9560589392275776  0.4353215354528135  0.9987432372255816
  0.2967620325601160  0.7055526111078971  0.1995296027942983
  0.2188500425931793  0.3984879095664844  0.6091034793494948
  0.5516059305557655  0.8063677599350105  0.7189379482675772
  0.1266599228062941  0.0510724051366972  0.1288300718843655
  0.1019360578646555  0.1894962462465162  0.5188488648530913
  0.6901580125263899  0.8059111773759697  0.1956070910531227
  0.3029918108945916  0.7970140014140034  0.4317784475842019
  0.9733335966513456  0.8049302320345092  0.8172015841419744
  0.9464716097177205  0.9850795385116814  0.5583209228009359
  0.3652482335119099  0.8712274441592447  0.6448872464603266
  0.7270886248753601  0.5319068278796119  0.7408016430997192
  0.7693638747500398  0.9556642155495525  0.6811233000633110
  0.0977791118288320  0.4797333015317202  0.1780390334050615
  0.3415547951702297  0.2874465011418890  0.7540824851799651
