Ca Si  O 
 1.0000000000000000
    13.3109356200000004    0.0000000000000000    0.0000000000000000
     0.0000000000000000   13.3109356200000004    0.0000000000000000
     0.0000000000000000    0.0000000000000000   13.3109356200000004
 Ca  Si  O  
  27  27  81
Direct
  0.0006307933746884  0.3747343284047827  0.5438496959690050
  0.4648863202900834  0.6553709858601209  0.0200677073066634
  0.2492157707543626  0.9933651741304116  0.0205066336276067
  0.8290555063175941  0.9689322387392029  0.5769643531639288
  0.2353369852749689  0.6582137664940489  0.8448335880389449
  0.1872041546242562  0.5840622659401007  0.1808109917069826
  0.3293074578028798  0.3666923294757848  0.8405303368148962
  0.4402273203992853  0.1314500482874396  0.8062520356476639
  0.5531523726203703  0.4077381481618194  0.7453880045135399
  0.4140432376308044  0.3417573159293817  0.1238974244246251
  0.4781778427683507  0.8540289416560186  0.6934434936437623
  0.0967431634230983  0.8864730892598216  0.6871146620420661
  0.1680675133488475  0.3183056473982104  0.3590873531698442
  0.6711570189383878  0.4477115103047880  0.1464246740906407
  0.5812362114031470  0.8742995467962454  0.1375163949594702
  0.9492441426142214  0.3163937757817809  0.2004892147468744
  0.7229364692847938  0.9499323669630970  0.8739587893822297
  0.7305659517568908  0.5979239684730742  0.8775771586220023
  0.2377549805924161  0.0929465407481251  0.4942062209448203
  0.0192826580585625  0.9656186917986159  0.3072959787931120
  0.9202552029171334  0.5280269134079095  0.0618501646693412
  0.0108828277842726  0.6558237271378223  0.3064250032034938
  0.0483834246055800  0.1356480589754366  0.7677849184879461
  0.5187979295477954  0.2688526075224155  0.4083350483517701
  0.5123567023908422  0.0656703837321993  0.5088142233836451
  0.2413051457610460  0.6047637851921336  0.5529736293623513
  0.6995603777099478  0.6280849227035776  0.4003239939041940
  0.2795288435179134  0.8563397589327382  0.5689550792072721
  0.7688912351602222  0.8414815389213038  0.2430692711892178
  0.1151317115302823  0.2389225724464889  0.9460128040195569
  0.1870616221942180  0.4303083324506380  0.0300329587199972
  0.2021408011287489  0.7687263376607030  0.3751887532606066
  0.3680778053376235  0.5267753755389284  0.3880499491139451
  0.3047892481655620  0.7755233902934314  0.1591736930059617
  0.5887948881838255  0.2845797161176563  0.9183782274201999
  0.8912262322248388  0.8022836834966225  0.7600496327845659
  0.7191075002735232  0.7157298316194545  0.0336751069043184
  0.0120122607880212  0.1203943032818906  0.4975943764650256
  0.4788711907240071  0.6017921556140770  0.8083423357433381
  0.7686048533378752  0.2460716153625270  0.7568845292033648
  0.4962634189346338  0.5413557232725913  0.2634137336470717
  0.8360519198424310  0.0727026159262575  0.3020430512757600
  0.9397548915498397  0.3130278448450643  0.9127034482644427
  0.8715826145660526  0.4536905858763367  0.3510175214865925
  0.3851358436665626  0.1464438320226809  0.2778472682598701
  0.0967700105216195  0.7766628556498119  0.0440955870238068
  0.5167066257661007  0.5227010353461539  0.5597188591916576
  0.0022383663215404  0.5858722634254615  0.7024993792284602
  0.2205347703424622  0.2970452756197764  0.6106410805403625
  0.6659587915578845  0.2081853334063380  0.2114222598876937
  0.4879701649402163  0.0934865320909726  0.0510283153183788
  0.6310317914376630  0.0698064461076554  0.6950385791137947
  0.9680927162353745  0.9385651006551858  0.9347027538249035
  0.7949984540605868  0.2772268265241598  0.5019792575632636
  0.7714118971901390  0.2923596605901096  0.6298179173373538
  0.8704075236147825  0.2451093501720354  0.8204979854000676
  0.3526507350052077  0.2630385030740611  0.2557314104115545
  0.6179393045550617  0.5407813391557820  0.5005751812057820
  0.0403351120708072  0.8826571501365280  0.0604421254048556
  0.7694238799120569  0.8282260649984271  0.7369326619881885
  0.5867433569632124  0.0178802765481334  0.0481535775018646
  0.4771091891134847  0.3899666040154734  0.5950270864581042
  0.8352124258865583  0.3782866579592096  0.4453057259997475
  0.0592229849579875  0.2934665902921706  0.8454374877368687
  0.2605122539087151  0.4733725795001628  0.3836280007490562
  0.8600541852819809  0.7833588883363557  0.3043199302920225
  0.5940809824155696  0.7406599965209657  0.0644061337590633
  0.2743654243592533  0.7749777149023578  0.4674342418613545
  0.1484601222945439  0.7628534514691011  0.9208958025145942
  0.2977940787305828  0.0765058955337356  0.3107853548464536
  0.7507247060068043  0.7493989569757981  0.9219217093621552
  0.9285688919889764  0.8276413036997319  0.8753442562289246
  0.1119660031831782  0.2177886155233316  0.6206855863374688
  0.1968599687359918  0.3058497138159849  0.9804984226946474
  0.1409757295483035  0.1318679866021319  0.9502196765940033
  0.1092834411890875  0.6318580624312267  0.6766169920067572
  0.4131665577088863  0.8344349223138982  0.1397693763317893
  0.3996301944400809  0.9111225053013966  0.5492952530710234
  0.7839766848785944  0.9557854904567556  0.2207864536272169
  0.9931789332777193  0.4117637494816461  0.3633820437635021
  0.7177428854546589  0.1390641065995930  0.2953988271186604
  0.6464017328032122  0.8012546363739380  0.2570313107712259
  0.3004956063336440  0.7863092271495787  0.2855448616466225
  0.5540411749057801  0.1499787157711457  0.6512814664188120
  0.2691282147452832  0.7828387994261818  0.6613901329950238
  0.2693748976302238  0.2597957107390772  0.5006436745127912
  0.0457323202048512  0.6860174191121210  0.1103925052264658
  0.5563769528621609  0.5951385977779975  0.6990688006948680
  0.2771461064282422  0.4537088903747549  0.1104809903663256
  0.5573726304297157  0.9881543698729121  0.7601385694328825
  0.9461401023589354  0.8469313729578386  0.6605195901323125
  0.4758484069657005  0.2795274867387571  0.8697611468126084
  0.0008962202463120  0.0461493750354417  0.5925925708894684
  0.2162308519977651  0.8459927785301691  0.0988207897289792
  0.0793721643738218  0.1561845049326442  0.4147707980575448
  0.4062729175757218  0.7031543121534533  0.8062399192942681
  0.2042571399650417  0.5105741612774775  0.9334001496733254
  0.9527471007331038  0.4703812773756019  0.6849654126717202
  0.6570265178699737  0.2487727628270205  0.8323847486237033
  0.9166991538645874  0.6641782082332691  0.7371339934405000
  0.6838932265829710  0.2516417377127995  0.4669198475170748
  0.6109146728785696  0.5490950492629608  0.2801706458858224
  0.1140565880071471  0.8403213845609449  0.3272097825682369
  0.5741193450381965  0.6295954048044595  0.8734984400743423
  0.7244930488214621  0.2435877974744498  0.1161352931252476
  0.3970873649225868  0.0539341358485212  0.9554763243607363
  0.7719088269469070  0.7607079223481361  0.1315693073722491
  0.9052646052839972  0.1920678074769322  0.5058056384769742
  0.6160617873982324  0.4085146931241787  0.9013569851523329
  0.9478784001511081  0.1081551290682300  0.2523882975552998
  0.8910589397020913  0.4020553117212056  0.9645371487417650
  0.4205123035521074  0.1157010013395287  0.1614952923947806
  0.5279941200707272  0.2253611793819193  0.0209149249870686
  0.1606372768257743  0.4086205264059417  0.6146654926124568
  0.0511218609590120  0.9659450001907528  0.8361665376306583
  0.4013485139221190  0.5822409349163390  0.5143201135849231
  0.3191315322431106  0.6508234602970756  0.1202267906393795
  0.6498308305994195  0.9881649664232993  0.5921596171013559
  0.1874982316231802  0.9430901048862558  0.5672983707211409
  0.2951530217077257  0.2686953278194880  0.7084132377465439
  0.8356790745262428  0.4548688313767082  0.2182850344219454
  0.4888879696948004  0.4791086698982921  0.1617146736676952
  0.1604881310364267  0.6398220277771879  0.3797981647814475
  0.3997913258632378  0.6207947762578089  0.3110515930810279
  0.4838522868612596  0.1264084838237689  0.3671912560869256
  0.7463994262786464  0.0853578232542004  0.7387653648647126
  0.0033837155618367  0.2419567693769673  0.0071377101288993
  0.0781815523498114  0.4707814821509895  0.0914448153570139
  0.5785836923760885  0.2921797528760040  0.2609116630976538
  0.7476180648825044  0.5956050172827746  0.0552246243979655
  0.4059023523396771  0.4975054683646648  0.7998097709979006
  0.8783323474597347  0.5697514176693163  0.3697520017003883
  0.4669492263685067  0.4569690789324093  0.3509926329280826
  0.8773484669592293  0.0009912376091862  0.9360992101320071
  0.8633000052027896  0.0083721395085524  0.4106675478008209
