Ca Si  O 
 1.0000000000000000
    11.1219476799999999    0.0000000000000000    0.0000000000000000
     0.0000000000000000   11.1219476799999999    0.0000000000000000
     0.0000000000000000    0.0000000000000000   11.1219476799999999
 Ca  Si  O  
  27  27  81
Direct
  0.8876648069252560  0.8729685383666540  0.7763389946103396
  0.0221365966720678  0.3857811386503483  0.2172986683210148
  0.1416208972851417  0.6354649494269154  0.0491259836604446
  0.5430972689128852  0.7242254802622844  0.3242001764208983
  0.2274917436043900  0.0699358846471394  0.5794912020301825
  0.8181027461909441  0.6189239644040476  0.5156793427749697
  0.0963191206092780  0.8962791209605834  0.3318002004843094
  0.9368481609329059  0.3558517099587722  0.4716364184514847
  0.0534679120159285  0.0680384391090752  0.9391483201079039
  0.7082894612214180  0.9504897383225237  0.2778614132088778
  0.0172262049339186  0.1252544383485177  0.2598861047690165
  0.4079818436980814  0.4468080666245320  0.0635284898229264
  0.4387074189149575  0.7111021565244406  0.0014360389438552
  0.2220500069822303  0.4378370443835787  0.6225280813405156
  0.8512899244280566  0.6989647338459697  0.2625148179082245
  0.4716947481630304  0.7826599657228381  0.5897554069414576
  0.7090538740962680  0.4846180430872158  0.9703204906642754
  0.5758836639303450  0.4990382323035707  0.4773163930222696
  0.3845660178469748  0.0176894520330993  0.1397715701176541
  0.5071281354921821  0.2475896559873046  0.2896852721033480
  0.3620798214364554  0.1416905451581840  0.8220741764899220
  0.5832322185496920  0.0608643952908795  0.6344958925395700
  0.2906680028546942  0.4815467348071539  0.3373394820717229
  0.9200875992612113  0.3821833803123951  0.9611618241311488
  0.6451011411339421  0.6525766663200128  0.7727292194922464
  0.9984747842295191  0.5453550479208872  0.7142320031126059
  0.1504420384038347  0.8080540098350831  0.7153506390168525
  0.5834779605796527  0.0019286487058893  0.8998547644669374
  0.0618818483778374  0.6099590265290656  0.3716958943651495
  0.8023617253700298  0.1604576960210984  0.7873167831697623
  0.1819257766909401  0.2754325400674785  0.1040888802310928
  0.7188993268128735  0.1975712171305593  0.4943978993794367
  0.2956205481808201  0.7497642957802513  0.2201822954448568
  0.2164749915457254  0.1840487519718309  0.3476971598197628
  0.9186419828581679  0.0716732646956670  0.5605721029610166
  0.4831167457892591  0.4244139170415518  0.8006274778663587
  0.4229620571277494  0.9531731990668741  0.4163523236426517
  0.3886355253920777  0.8866596484474740  0.8407120559301173
  0.7421553164508323  0.4040981147647334  0.7143111789930664
  0.9501458794850219  0.8890235041997607  0.0976316757857649
  0.7112787191244906  0.8152313336543227  0.0038120022877144
  0.7520119200920391  0.2872434030367602  0.2588415260374611
  0.5537303228889132  0.2356172646552137  0.0017299164277313
  0.7611445713975881  0.1003591791757107  0.0421849790611495
  0.9572846534016423  0.8253896353520699  0.5347242588359308
  0.0508481262699125  0.2604600528025501  0.6955764873729382
  0.7016037698174101  0.8215318407252208  0.5341174811208966
  0.2591385495530402  0.6712891406085090  0.4872446693617246
  0.2211260770829305  0.4204548317026429  0.8879515435735263
  0.2087790589210899  0.8854000228492352  0.9898835165173155
  0.3289688762499196  0.6126510577147400  0.7800620412557093
  0.5995004743629579  0.5267686558654985  0.2162996814241442
  0.4243376821927290  0.2457642553844490  0.5279813885979366
  0.8921828078587041  0.6627462798853950  0.9905565676964234
  0.8857445434413337  0.2693898727277595  0.2625248593149289
  0.6602795069073728  0.1124879064347478  0.8414325043830811
  0.5479623736190782  0.8793683338024838  0.4074307504744528
  0.8851527127486001  0.0567158566241340  0.1265342519575672
  0.6473775194022492  0.8635690372174094  0.6641780983454509
  0.3512292866675309  0.1965319719971925  0.6388231678860046
  0.2445036488429156  0.7937102397877851  0.5532705832689190
  0.3168345915110437  0.8937876373825919  0.3193536035407784
  0.1037373545709756  0.2752904030924195  0.3720368867982303
  0.6747520511623194  0.1691287788902816  0.2261022144998977
  0.7084916542243614  0.4298875707352725  0.1635963414278532
  0.0120218862601231  0.6992745303042102  0.6205013796648250
  0.1636262768321169  0.0473875507387749  0.3995065322947104
  0.8039562509432699  0.4554255455731473  0.5999824106347531
  0.6101815882665615  0.6821097723416012  0.5325973031371066
  0.6938382378723795  0.0433597337332556  0.4601271600299418
  0.7931742293540442  0.5155412959108615  0.8098074059632691
  0.2849058322489789  0.7970709470195961  0.9109076540809622
  0.9402886293743111  0.5154414348045198  0.3789409149603192
  0.3891985535756449  0.6573761179570663  0.4318524289263695
  0.1260392604184594  0.4100005413799969  0.7746512461565545
  0.4307516981594000  0.7410897099274972  0.7821543852110622
  0.4709402670018674  0.2729382188570051  0.1082761000724290
  0.0918936547272087  0.5661981777997358  0.2273430385351354
  0.9268896192110121  0.8732217907718119  0.2441903125370573
  0.9748514614483422  0.7263212103152062  0.4180332945065607
  0.5798129001808072  0.6034224789663819  0.1039686836577530
  0.1047654739551877  0.8907409327068511  0.8986880803237154
  0.4084243830933036  0.9982101839918024  0.5560191144506444
  0.8550509239583115  0.0987607397196459  0.9090956351271020
  0.7476109049633651  0.6841012940280258  0.9547014062198861
  0.1461126357321616  0.1736016636251610  0.7779702781338745
  0.7653640355912913  0.3157963965534497  0.8177509624824992
  0.8476355653922658  0.0529329373719909  0.6911638933370705
  0.0507228631379428  0.3850873249207732  0.6073691653978361
  0.4074570291450966  0.3779343232803267  0.5394278073064986
  0.5616947786253208  0.2049777732815229  0.5074264015958758
  0.2672702340926675  0.9278220098586185  0.7241333740926211
  0.4830358247108747  0.1018675570680261  0.9801757258401345
  0.4823701948937778  0.4843211886067783  0.2977327366819622
  0.4319909972818717  0.7972728846715812  0.1842690910770405
  0.3278818786890750  0.3510557046605348  0.7961062625678526
  0.4611734623804667  0.0608960848842979  0.3180274194564454
  0.6672765556473108  0.9956788701599071  0.0478241801979058
  0.3342166072840220  0.2142405070188210  0.4071699948870826
  0.8310630193505819  0.7676237989639598  0.6218513698312955
  0.1721683355374317  0.7191852884170373  0.3470783896009120
  0.8639784142555865  0.1807557478098117  0.4792311062193380
  0.7101824893677255  0.2353277569095704  0.6534344171631635
  0.5057431370689562  0.9829415084966485  0.7921853270217865
  0.6720150494360174  0.5816661205512882  0.3274584681376598
  0.8602756302482444  0.8827405821783185  0.9769939521959700
  0.8900579570070410  0.5369222686363150  0.0669974712558619
  0.0328920230993210  0.2363724911894209  0.0740840636646476
  0.4164529301220378  0.5298220059600208  0.7109074253440473
  0.2174352145486805  0.6077291554027522  0.6947520616281122
  0.9638074623634626  0.6926693544740717  0.8776153998235676
  0.7418954294163700  0.8114708358347538  0.4032449926072660
  0.4772319842454069  0.8976341659970836  0.9681860362788542
  0.0701842188489777  0.9540167033046140  0.1184844298782028
  0.3040889875863901  0.5608886302547325  0.9162263403130844
  0.7330686975502837  0.7922142563073090  0.1540356463895899
  0.5015865296715727  0.3132822047226174  0.8948333382197675
  0.1270750106603630  0.4544363483285151  0.9775423084889030
  0.7105353574186207  0.3225729398504057  0.4064456127705862
  0.9016365854725905  0.9508725795408526  0.4735023838918113
  0.3003337793079782  0.6076174060908727  0.1486781099477353
  0.7076502728162446  0.2246456719530261  0.0253695151351404
  0.1783381442772621  0.8189446760641478  0.1285924400248572
  0.2482219867806463  0.3862878826274068  0.1848437674002797
  0.0337360344424853  0.1486297173446153  0.5885253247298139
  0.0268714202403081  0.9258509576085328  0.6232189306612527
  0.1533616241575415  0.5501532138119174  0.4789174309440736
  0.5990881859642051  0.4270097663325818  0.7050591843819930
  0.9485580442867180  0.2522667954143801  0.8048891504945472
  0.9695499457699301  0.7363745897427202  0.1006525117909924
  0.6795592253676201  0.8621915545641192  0.8749888283955675
  0.2767303730024380  0.0001203287444344  0.9743887034721241
  0.5380884007179576  0.5324275693769492  0.8826618630523894
  0.2282452393266428  0.1350281797045821  0.1796469258341269
  0.2688200453753618  0.3007189546498568  0.9777822188064815
