Sc Cl  C 
 1.0000000000000000
    13.7939866799999997    0.0000000000000000    0.0000000000000000
    -6.8969933399999999   11.9459428800000005    0.0000000000000000
     0.0000000000000000    0.0000000000000000   27.8102210700000008
 Sc  Cl  C  
  32  32  16
Cartesian
  0.0438814200000000  1.8862042699999999 15.1652613400000007
 -1.6885075800000000  5.0218694299999997 15.0542231799999993
 -3.5715170000000001  7.9951400899999996 15.1152542800000003
 -5.1269506199999997 11.0597984599999997 15.2433622999999994
  3.4447610499999999  2.0202009799999998 15.2106034200000000
  1.6390216900000001  4.9969320300000000 15.0353779500000009
 -0.0059418700000000  7.9625387800000000 15.1010687699999995
 -1.7534181499999999 11.0985479399999996 15.1044989199999993
  6.8613829199999996  2.1397102800000001 15.1309051300000004
  5.0721415500000004  4.8391273100000003 15.0626290600000008
  3.5120515600000002  8.0188287200000001 15.2574378199999998
  1.7419362800000000 10.9899921999999997 15.2254427299999993
 10.4018852499999994  1.9683618000000001 15.0506507400000000
  8.5929472800000006  4.9900326300000000 15.2259428499999991
  6.7320948300000003  7.9759627399999999 15.0105337399999996
  5.2191094800000002 10.9072360199999991 15.1463692900000009
  1.7708371999999999  0.8391043300000000 12.7889944900000003
 -0.0110581100000000  3.7435089300000000 12.6279597900000002
 -1.6978923600000000  6.9812665699999998 12.6504288099999993
 -3.5336925300000002  9.9040891500000008 12.7845235499999994
  5.1461584399999998  0.9847037800000000 12.5158677800000007
  3.3949149900000002  3.9181465200000001 12.7588881500000006
  1.7356505300000000  6.9278034499999999 12.7453852100000002
 -0.1117975600000000 10.0125804499999997 12.6934653599999994
  8.6986952300000002  0.9877322800000000 12.7344185599999999
  6.8592870399999999  4.0197726700000000 12.5668553400000000
  5.0342616800000002  7.0223579200000001 12.6237447899999999
  3.3417760099999998 10.0175690900000003 12.6396920200000000
 12.0695078200000001  0.9934819000000000 12.6715674899999993
 10.3589928300000000  3.9929783200000002 12.7201422799999992
  8.6523715100000000  6.9338725900000000 12.6947579400000006
  6.8557189999999997  9.8836531599999997 12.6209728999999999
 -0.0182226700000000  2.0299328700000001 10.7971184999999998
 -1.7191866200000001  4.8578242999999999 10.9780567199999997
 -3.2804780600000001  7.9720986099999998 10.7950267800000006
 -5.2347679600000001 10.9257579499999995 11.0107887699999996
  3.5444190500000001  1.9777122000000000 10.9900756000000008
  1.6420367000000000  4.9676621799999996 11.1138875099999996
  0.0361735600000000  7.8805589899999999 11.0863321700000004
 -1.8694864300000000 10.8080983400000008 11.0782168100000007
  6.9440376099999996  1.9797904300000000 10.8733308399999995
  4.9766946100000000  5.0643295899999998 10.9037162599999995
  3.3297647300000000  8.0059163899999994 11.0112899700000000
  1.7351217100000000 11.0226684499999994 10.9249559200000004
 10.4212767500000005  2.0240181300000000 11.0971047600000006
  8.6722194100000003  4.9741052999999997 11.0490258800000003
  7.0877155500000004  7.9720083900000001 11.1249727000000007
  5.2919476200000002 10.8419541899999992 10.8775059600000006
  1.8525040200000000  0.9771025600000000 16.9908767000000012
  0.1083375000000000  4.0274320699999997 16.7769191800000002
 -1.6765590300000000  7.0283240999999999 16.8029299600000002
 -3.3706330100000002  9.9394411399999996 16.9386028000000017
  5.2148765600000004  1.0670230300000001 16.8448697600000017
  3.5496646200000002  4.0103971600000001 16.8162574400000011
  1.8055087700000001  6.9835525499999997 16.7884467700000002
 -0.0118030200000000  9.9363597600000002 16.7193122400000007
  8.6806718099999998  0.9330833500000000 16.8093072700000015
  6.8465916800000004  3.9709919500000002 16.8856429199999987
  5.2253527000000002  6.9121256400000002 16.7533007100000013
  3.4408163799999998 10.0917263199999994 16.8359286799999985
 12.2096941099999992  0.8097681000000000 16.6987124300000005
 10.4402970899999996  3.9856182000000002 16.8430487900000010
  8.4287937799999995  7.1841977200000002 16.8304249400000003
  6.9998150700000004 10.0288908699999997 16.7771283400000009
 13.7732169599999992  0.0334649800000000 13.9518407399999997
 -1.6186688899999999  2.9458838699999998 13.9580902699999996
 -3.4449141100000000  5.9747392599999998 13.9132312099999993
  8.5954614500000002  8.9367180699999995 13.9066001000000004
  3.3340244499999998  0.0245893400000000 13.9443628700000009
  1.7389725300000001  2.9361632400000000 13.9340076699999997
  0.0279968900000000  6.0047524100000000 13.9996940900000002
 -1.8474040700000001  9.1101085000000008 13.9862551899999996
  6.8862129200000002  0.0155763700000000 13.8666707500000008
  5.1062718299999998  2.9514493100000001 13.9232683000000002
  3.2980106000000000  6.0115890199999997 13.9426775900000006
  1.7832536999999999  9.0056016400000001 13.9272969300000007
 10.3383289600000001  0.0944112600000000 13.8666764100000002
  8.6500506799999997  3.0495043399999999 13.9819837099999997
  6.9162315000000003  5.8944320399999999 13.9116737399999995
  5.1451781099999998  8.9049130299999995 13.8306563199999992
