Sc Cl  C 
 1.0000000000000000
    13.7939866799999997    0.0000000000000000    0.0000000000000000
    -6.8969933399999999   11.9459428800000005    0.0000000000000000
     0.0000000000000000    0.0000000000000000   27.8102210700000008
 Sc  Cl  C  
  32  32  16
Cartesian
 -0.1442880400000000  2.0268661099999998 15.3061024900000007
 -1.8845742000000001  5.1089265399999997 15.3330150900000000
 -3.4769918299999998  8.0461132600000003 15.0288837599999994
 -5.1356369099999997 10.8452044200000000 15.2296198799999996
  3.3302912299999998  1.9456133700000000 15.3367468099999993
  1.7497818100000000  4.9843262499999996 15.1794740699999995
 -0.0914049800000000  7.8600857700000004 15.2386779000000008
 -1.6853614400000001 10.8181470399999995 15.1296554800000003
  6.8392870200000004  1.9515309199999999 14.8976707400000006
  5.1746835100000004  4.9891586500000003 15.1380225100000008
  3.3288385100000002  7.9941583800000000 15.1779789199999993
  1.6453762300000001 11.0453483200000004 15.0424029200000007
 10.3494017599999992  1.8262673400000000 15.0860889300000007
  8.7274032300000002  5.0345184200000004 15.1540851900000000
  6.7675236400000003  8.0835199000000006 15.0305368999999995
  5.1674936799999998 10.9621687399999992 15.1634881000000004
  1.5712521800000001  0.9310757200000001 12.8629416800000005
  0.0676462700000000  4.0896058399999999 12.8365880000000008
 -1.6573351700000001  6.8242334600000003 12.7089061500000007
 -3.4751786400000002  9.9844961600000008 12.7349176699999997
  5.2107402499999997  1.0683879900000000 12.5278770500000007
  3.5036917700000001  3.9399082200000000 12.6864573200000006
  1.7705758700000001  7.0797646900000002 12.7009097400000002
  0.0269217200000000 10.0469282799999995 12.5816472299999997
  8.8550488099999995  0.9999431100000000 12.4901147500000000
  7.1152566899999998  4.0115089099999999 12.4920775400000004
  5.1213750899999999  6.9305117000000003 12.5927603999999995
  3.4130426200000001  9.7892589300000008 12.5083901399999995
 12.2232631200000004  1.0846041600000000 12.6828743799999994
 10.4222535999999995  3.9532220699999998 12.8013887200000003
  8.7160994299999999  7.0361042700000000 12.6635324499999999
  6.8839012500000001  9.9714650700000007 12.6099165099999997
 -0.0156024900000000  2.1342576400000000 11.2604069599999992
 -1.7267392399999999  4.8967498599999999 10.9425536799999996
 -3.4254848700000000  7.9102857400000000 11.1277714299999992
 -5.1127829299999998 10.9699427299999996 11.2879907100000008
  3.3801489899999999  2.0919507099999999 11.2941367300000000
  1.8149667100000000  4.8413579999999996 10.8733845099999993
 -0.0983315500000000  8.0511596399999998 11.0376912500000000
 -1.6453594499999999 10.8524175399999994 10.9051296000000004
  7.2263400000000004  1.9481578900000001 10.7858671899999994
  5.4175851599999998  4.9889889500000004 10.8829825699999994
  3.2008100800000001  7.8556575700000000 10.8714213599999994
  2.0142351999999999 10.8823318899999997 10.8313670999999996
 10.4707321100000001  1.9259388600000000 11.0522245699999999
  8.7541772400000006  4.9130304699999998 10.8507433899999999
  6.9945272400000000  7.9049752299999998 11.0151397899999992
  5.3219510100000003 10.6873694100000005 10.9385960400000002
  1.5359449900000000  0.9505649600000000 17.0612725699999999
  0.0144723300000000  3.9272624199999999 16.9135855500000005
 -1.9987091900000000  7.0904977100000002 16.9792158600000000
 -3.3976510100000001  9.9325383499999997 16.8782519399999984
  5.2043438499999999  0.9966393099999999 16.6602394099999991
  3.4783217299999998  3.8472447299999999 16.9435840300000002
  1.8774104100000000  7.0798339900000000 16.8444819999999993
  0.0081548400000000  9.8898361300000008 16.6295407600000011
  8.4336018199999998  1.0986216700000000 16.7056788099999984
  6.8360914900000003  4.2261634900000002 16.8096007400000005
  5.0573020800000004  7.1861140600000004 16.6313189100000010
  3.3694584600000002  9.9897387000000002 16.6136805599999988
 11.9146667399999995  1.0066219199999999 17.0277322200000008
 10.2292187699999992  3.8124078899999998 16.9046517899999991
  8.5875992199999995  6.9105037899999999 16.7604386199999986
  6.8573292900000000 10.1081315200000006 16.7185110600000009
  6.7628542600000001 11.8555679699999992 13.8788473499999991
 -1.6875232899999999  3.2698981699999998 14.1245829500000006
 10.2226620100000005  5.9690879800000003 14.0078245399999997
 -5.1103012899999998  8.9562907099999993 13.9149205299999998
 -3.5805891999999999 11.8009785100000002 14.1011856600000005
  1.7010707800000000  2.9417874899999998 13.8123366399999998
 -0.0220716300000000  5.9450906999999997 14.0780323200000002
 -1.8229046499999999  8.7965461299999994 13.8705310300000004
 -0.0868889400000000 11.8515758600000005 13.8011059300000003
  5.2226275700000002  3.0609985000000002 13.6334397299999992
  3.4898254400000002  6.0462384599999996 13.9003333700000002
  1.5448706800000001  9.0690315699999999 13.8627269999999996
  3.3360427200000000 11.9223788499999994 13.7556415399999992
  8.5745617599999999  3.0210230299999998 13.7687170699999992
  6.7611061699999997  6.0337594699999997 13.8888222900000002
  5.1133503700000000  9.1128351799999994 13.8960634100000000
