Ca Si  O 
 1.0000000000000000
    12.0937876200000005    0.0000000000000000    0.0000000000000000
     0.0000000000000000   12.0937876200000005    0.0000000000000000
     0.0000000000000000    0.0000000000000000   12.0937876200000005
 Ca  Si  O  
  27  27  81
Direct
  0.5692375743902802  0.4167098851368782  0.2021064017990420
  0.0866235105921266  0.1922503993831504  0.4140718323611507
  0.5181552981496792  0.9073104956675269  0.9682111599707420
  0.2310246456932572  0.8637203643898618  0.7282622778520399
  0.8922799249553880  0.0266884412180541  0.2750126390924665
  0.4203653453937535  0.5638878211092647  0.5122105724558771
  0.1240940958412498  0.0934941819327236  0.1008469437633468
  0.6437131645280207  0.1631680497461886  0.7724500614307960
  0.8273097977554860  0.6808236706905227  0.6058146273284729
  0.5500893739028634  0.1448532382942574  0.2786084720412842
  0.3705265985148828  0.3647773541768216  0.7529779566279501
  0.0198834507067357  0.6092218237581387  0.0672210539447194
  0.9294696403805377  0.4859527589421981  0.4280069671010148
  0.3014483555152757  0.8150931850083208  0.4300865132936740
  0.9842723424640394  0.8626568042874230  0.5399441436528220
  0.0215080451363177  0.9021812341037291  0.9149033253818624
  0.8953345015000355  0.2603538088260227  0.9024806845417382
  0.7069754264462600  0.5664188528225536  0.0444025913860062
  0.3314181111773153  0.1508793925719691  0.5465245552244946
  0.2203179842180824  0.5794511140919142  0.8687990040956250
  0.7790705282783856  0.9688036484636069  0.6606192097162030
  0.0835591480314089  0.3578832517980004  0.6202398178049037
  0.2437807899920769  0.5841986160163775  0.2031095796603711
  0.4387827004026717  0.2206796914133341  0.0454213971056985
  0.5318520204011984  0.7127059950801419  0.2020829459546934
  0.5328219886500702  0.6776138929749124  0.7816269333494382
  0.5728568491266427  0.8711424130333786  0.4054566446901108
  0.4673951558940970  0.9175089714366921  0.6997760648619691
  0.6422703874139969  0.6100573138723598  0.3550383101567977
  0.2650921944997741  0.8438001245469201  0.0127495979625943
  0.2709540842755431  0.2101301916198194  0.2842679049791351
  0.0592417853291193  0.1134032143686677  0.7074510847082330
  0.1148135872424060  0.3304150250986465  0.1097588333538141
  0.6153567446225751  0.4577830977322884  0.5967493465872522
  0.9686022483665874  0.6278844981073017  0.8276837591761844
  0.1960374999540467  0.2664699340900117  0.8798235527473237
  0.5450148743392601  0.2996580007744505  0.4570993450271950
  0.6437941135268589  0.3683251839674691  0.9094594014377110
  0.1532107680587829  0.9691448649732448  0.3236655978253404
  0.3812836040194991  0.1155335122380791  0.8026692261361210
  0.7148512692337158  0.8540020715197577  0.1250315523566305
  0.7956692942157025  0.7822972742099468  0.8548736570255729
  0.0581194280969191  0.7847737605631940  0.2330741739947969
  0.8452747775307800  0.2294293696220870  0.6363530890250576
  0.8291881836436614  0.7791512887506784  0.3775950920824919
  0.6982743500501457  0.2582701266255575  0.1126748900192775
  0.1547447556384325  0.6880045649420788  0.6001187459251909
  0.8123084990969933  0.4698549254001204  0.7589975835874651
  0.8304139551278147  0.0356790968684135  0.9836713752378594
  0.7439408159542328  0.1343617534107152  0.4452895229526115
  0.1933204727469822  0.5166998029356829  0.4473628213094088
  0.4610640822548197  0.5388194265313219  0.9973278346688876
  0.3690309818753044  0.9644259926238062  0.1881430310746601
  0.8994836408413793  0.4033874434781913  0.1565035445859764
  0.0800728283336598  0.9901460548386908  0.7029375359578209
  0.7546316602176283  0.3691019273910484  0.1716808790793037
  0.0125796908942246  0.6933988683687501  0.6218930881142760
  0.1928100768152897  0.4398062928774997  0.0997814124008902
  0.5750361754740323  0.9902624972671712  0.7258827338328934
  0.3860755510770247  0.8126046362636554  0.0929654848693300
  0.9503232329790160  0.0897837157487639  0.0127290626259567
  0.1725940181509488  0.8511509622491618  0.2776500741956968
  0.6864822453364696  0.0034636551687684  0.4660302576075831
  0.8642266019882363  0.5898036350666459  0.7417917373680488
  0.5567928842130602  0.5607952465432826  0.6448147127293443
  0.5226769477534450  0.3872859510327667  0.3688803814135443
  0.3958336941590843  0.5346688327242182  0.8705431202205947
  0.9892092193032905  0.3320541187079322  0.0568580970334586
  0.0554918393713284  0.7259167637011968  0.7874281837272746
  0.6649248765292936  0.2530953929551477  0.4177949628984802
  0.8621981059726928  0.1518397277758711  0.3873199114439220
  0.4865997936219753  0.1869883837103467  0.4511808857116345
  0.6920415243739827  0.7427647972868900  0.7850174311230380
  0.2588714353493831  0.2151515548112461  0.4140715876073901
  0.9256504787207435  0.1338909778208922  0.6900923616517090
  0.2290936096329431  0.9310247139927862  0.9263202019087549
  0.1709093151744962  0.8145236041444557  0.5652031592398676
  0.5349176720535134  0.4245772136355740  0.0040158345363766
  0.3987088050087653  0.9169878336262697  0.3180701142492859
  0.5777829634153936  0.8655781107556774  0.1651461281407884
  0.2660141819159877  0.0558343805280086  0.2639448426166426
  0.0779508636683005  0.1934697303705421  0.8375413202435582
  0.2996486356356240  0.5164485582391929  0.3751950201685450
  0.7428423776140365  0.1399424599784728  0.1644369020265630
  0.8957541053627333  0.6596973860204104  0.4049202668237364
  0.7487302319602004  0.4668234135899271  0.6403523960676266
  0.2601394103198250  0.6673163547748823  0.6872597263288142
  0.7596578018954826  0.0985721758523820  0.8874870699937097
  0.5769123205423050  0.2635204139627516  0.1343510404724637
  0.1823144873450324  0.9794950806321502  0.4525525643388139
  0.8214386337966798  0.8548133202623580  0.4889757870578514
  0.0402601893880455  0.5356147324174690  0.8987399027931665
  0.7109577611385240  0.4676452661238316  0.8775513729420031
  0.0786130201615034  0.6625880643668853  0.2339306104004496
  0.5601076149872062  0.6376735702921167  0.9765746423782494
  0.1741104917799110  0.2519598694589942  0.0175010672132177
  0.2356152968394859  0.9384586083875681  0.1204150672855954
  0.1656523367986844  0.6511822637745311  0.4647758011480608
  0.1412679636588492  0.1869819084850111  0.6124677001728264
  0.4344520563029368  0.5554331637915765  0.1294151393407717
  0.8777574895101391  0.8149643130577813  0.7523935458360563
  0.2004510370259007  0.3658588813551531  0.7945752225802688
  0.7634854150018552  0.1323810000890358  0.5792481644389915
  0.7627486193609873  0.2911831760776364  0.7234071322314160
  0.2363108407223708  0.6801132439598769  0.0308613266354019
  0.7302772272430561  0.7642252030881951  0.0280500791529527
  0.2948864121032084  0.1861469707204929  0.8802616487488806
  0.8412644342434714  0.9025164012265001  0.8980750986596207
  0.7193267356219705  0.2785333624041266  0.9688275152627494
  0.7486343992867306  0.9677348947855924  0.0681332148281929
  0.4711269338463875  0.8619178959916282  0.5887781631144602
  0.7839442702235910  0.8375677710139910  0.2478264514124153
  0.0080050661580908  0.8227541306864788  0.1132427898547800
  0.4352962434443677  0.0593909825911099  0.1358473318386254
  0.6907443757475211  0.7266685893728304  0.3969495472254705
  0.9927994824503128  0.8309350044630600  0.3468750082118607
  0.6480510437473682  0.5185193238906902  0.4622287562546100
  0.9160475640963835  0.3988273443816273  0.8071457782057530
  0.1444065816991749  0.2653904558975544  0.2303046603360147
  0.8964599867845207  0.5127241973180938  0.0972425642778073
  0.9510100021088348  0.3633911317189147  0.2688522795474723
  0.0871003016671133  0.4401760000478659  0.4043892197934926
  0.6923520490927887  0.6079516360814017  0.2286622691659274
  0.8677990841052987  0.6646082263515060  0.9206642269446434
  0.5387829301073835  0.3299599493049474  0.8327608948039390
  0.3813057112375519  0.2529317213195778  0.2129360090416405
  0.4105686486331732  0.8370767313011571  0.8104464563104342
  0.2260919528203192  0.4653898205300218  0.5687039235438467
  0.0541067034216696  0.0648756952455892  0.2929600685347574
  0.4621609057163185  0.0764564823737164  0.8999285130492476
  0.3440319435674032  0.0116918342245537  0.7225833812021250
  0.3891015385633174  0.2071701892512645  0.7027977154108482
  0.5065872249871707  0.6390861236241885  0.3590573107815168
  0.9206657244076856  0.3006881362780207  0.5480123207257049
  0.5543057097276858  0.3293181908878271  0.5990620968090061
