Sc Cl  C 
 1.0000000000000000
    13.7939866799999997    0.0000000000000000    0.0000000000000000
    -6.8969933399999999   11.9459428800000005    0.0000000000000000
     0.0000000000000000    0.0000000000000000   27.8102210700000008
 Sc  Cl  C  
  32  32  16
Cartesian
  0.0583220700000000  2.1165092799999998 15.0726091400000008
 -1.7012204799999999  4.8744292600000003 15.2444221700000000
 -3.4649931600000001  7.9244104499999999 14.9634952200000004
 -5.1771422500000002 10.8659222700000004 15.1240451599999997
  3.3714589099999999  1.9878317800000000 15.1211749599999994
  1.6613353799999999  5.0434773799999997 15.1085374100000003
  0.0093974800000000  8.0107778100000004 15.1135708199999996
 -1.7567288000000001 10.9166922000000000 15.0368686799999995
  6.7803824300000004  2.0521353300000000 15.0499768500000002
  5.0596189599999999  4.9902457599999996 15.2891260500000001
  3.3906367400000001  8.0791214999999994 15.1063910600000000
  1.6058496000000000 11.0019491200000008 15.3174382599999994
 10.1664304100000003  1.8787586700000001 15.1091690900000000
  8.5896726000000001  4.9472288300000002 15.1053323600000002
  6.8028745099999997  7.9526129399999999 15.2780629700000006
  5.1726342900000004 11.0417958400000007 15.1903890399999995
  1.8246322500000001  0.9081659700000000 12.6769432099999992
 -0.0713700100000000  3.9515645099999999 12.5966949899999996
 -1.6253180800000000  6.9814281400000002 12.5990645699999995
 -3.3460091500000000  9.9146831500000001 12.6024891399999994
  5.2210804700000004  0.8715182100000000 12.6769444300000007
  3.5959427800000001  4.0684679600000004 12.6946552199999996
  1.7181953100000000  6.8335481900000001 12.6101551500000006
  0.1033338500000000  9.8287486200000007 12.6724173400000009
  8.6532704099999993  0.9073055799999999 12.5993554600000000
  6.8607807000000003  4.0781949400000004 12.7484065199999996
  5.3000583399999996  7.1282853499999996 12.7497764000000000
  3.4722210400000000  9.9167583199999996 12.6329900399999993
 11.9929261799999995  0.9595543300000000 12.5666484399999998
 10.2972451500000002  3.8819799200000000 12.7318033899999996
  8.4805282700000006  7.0492293799999999 12.6500067999999999
  6.8924160199999998 10.0722475300000003 12.8055804000000002
 -0.0075945400000000  2.1136377000000000 10.9513691400000006
 -1.8011693700000000  4.9290899300000000 10.9784360499999991
 -3.5012651799999999  7.9289822200000000 10.8276810200000000
 -5.2104842199999997 10.9046079200000001 10.9895177600000000
  3.5831381000000002  1.7330815100000001 10.9442233000000009
  1.8309516500000000  4.9332176199999997 11.0549564700000005
  0.0438508100000000  8.0227421999999997 10.9789559299999997
 -1.5123399000000000 10.9327104199999994 11.1553319900000005
  6.6226611399999999  2.1627036899999998 10.8048717900000000
  5.2570373400000001  5.2050730999999999 11.1401139600000008
  3.5491983399999998  7.9439540099999997 11.1227798599999996
  1.8945872500000001 10.9054650100000003 10.9931625600000000
 10.2973678999999994  2.0335964400000002 10.8448025300000008
  8.8537671899999992  4.9626582800000003 11.0571878600000009
  7.0027970300000000  8.0675462600000003 11.0837040099999999
  5.1090159499999999 10.9501906200000008 11.0070274000000001
  1.7199255400000000  0.9970426500000000 16.7726727000000011
 -0.0035305700000000  3.9161621400000000 16.8496862500000013
 -1.7551525800000001  7.0124540099999999 16.6812601399999991
 -3.3831143799999999 10.0180657300000000 16.8042156600000006
  5.2949681399999999  1.0151430900000000 16.7233629499999985
  3.3287508600000000  3.9382106200000000 16.8603734799999998
  1.8985959299999999  6.9829998800000004 16.9561073100000002
 -0.3744385700000000  9.8268778099999992 16.8695884199999995
  8.4308700600000002  0.9350302700000001 16.8510311100000010
  7.1429561799999997  3.8452487299999998 16.8678332299999987
  5.2038062500000004  7.0419868900000004 16.8929198800000009
  3.4947671900000001  9.8735204499999991 16.7737639999999999
 12.1573671599999997  1.1761720499999999 16.7775766600000011
 10.2680794100000004  3.8535054899999999 16.7810735999999991
  8.5967540899999992  7.0893703700000001 16.8854190499999994
  6.8206943000000004 10.0268581099999992 16.8714328199999990
 -6.8118500800000001 11.8777484799999993 13.8106800500000002
 -1.6824407900000000  3.0562181000000002 13.8569455999999995
 -3.4326692599999999  5.9606918699999998 13.8778313000000004
 -5.0751659299999998  9.0243666600000001 13.8297453299999997
 -3.4502627000000001 11.9149225500000000 13.9650126799999992
  1.7350791000000001  2.9893238700000002 13.9872740199999992
 -0.1166803700000000  5.9257325700000001 13.8757981000000008
 -1.6057307800000000  9.0016638400000009 13.9202557900000006
 -0.0435061000000000 11.9408416800000001 13.8561717000000009
  5.1722492600000001  2.9981600600000000 13.9499668000000003
  3.4127977399999998  5.9263320100000003 14.0283889800000008
  1.7788695600000000  8.9208673199999993 13.9443511000000004
  3.3700190299999999 11.9112500299999997 13.8779634099999996
  8.5411719599999998  2.8963977600000002 13.7977258299999992
  6.9092767200000003  5.9889902099999999 13.9433758200000000
  5.1617867799999999  9.0768433399999999 13.8481368499999995
