Sc Cl  C 
 1.0000000000000000
    13.7939866799999997    0.0000000000000000    0.0000000000000000
    -6.8969933399999999   11.9459428800000005    0.0000000000000000
     0.0000000000000000    0.0000000000000000   27.8102210700000008
 Sc  Cl  C  
  32  32  16
Cartesian
 -0.0073666600000000  1.9287277100000000 15.2406162399999996
 -1.7915900600000001  5.0032236100000000 15.2805727499999993
 -3.4092268500000000  8.0769530199999995 15.0602904199999994
 -5.0829629599999997 10.9231613500000009 15.2090741400000002
  3.5666660900000000  1.9789860699999999 15.1530075100000001
  1.5158762299999999  5.1332475799999999 15.2536023499999995
 -0.0731695900000000  8.0013074799999995 15.1101641799999999
 -1.6774153100000000 10.9428748299999992 15.2210896499999997
  6.8365748499999999  1.9464372200000000 14.9188800799999992
  4.9366833500000000  5.0436825100000000 15.0978615200000004
  3.4129414699999998  7.8856399899999996 15.0574582100000001
  1.6833228200000001 11.0419580800000006 15.0539273700000003
 10.4731983999999994  1.9141577599999999 15.1183569900000006
  8.5913083700000001  4.8515437500000003 15.2137840200000003
  6.9428281700000003  8.0733129800000007 15.2467246599999999
  5.2560768099999997 10.8965308000000007 15.0907474300000004
  1.7813386000000000  0.9672474599999999 12.6572068800000004
 -0.0597378500000000  3.9643653799999998 12.5767748499999996
 -1.6487372700000000  6.9968728999999996 12.5809718400000001
 -3.3323626200000001  9.9305016899999998 12.5947498899999992
  5.1557992900000000  0.9384675200000000 12.7100360099999996
  3.2968845000000000  3.9331618800000001 12.6843540800000003
  1.7178519800000001  7.0127097100000002 12.7155035299999994
 -0.0021332000000000  9.9032227099999997 12.6548774399999999
  8.5392556800000001  0.9657565000000000 12.5685701900000009
  6.8837691100000002  4.0413819300000000 12.6776218099999998
  5.3360701300000004  6.8378339700000001 12.7097972299999995
  3.5132774900000001  9.9247490999999997 12.7112204400000000
 11.9869906700000008  0.9574935999999999 12.7055511800000005
 10.2773288199999993  4.0357186100000000 12.6742140600000006
  8.6745834500000001  7.0260493200000003 12.6898886199999996
  6.9379618799999996  9.8838608200000007 12.7050286400000001
 -0.1794038300000000  2.0971344099999998 11.0612732499999993
 -1.6507632000000001  4.9419920099999999 10.8054501700000003
 -3.3660619000000001  8.0387527500000004 11.0832983600000006
 -5.0377467400000002 11.0423250999999993 11.0441286699999992
  3.3913467300000000  2.0371511500000001 10.8852995600000000
  1.6947560600000000  4.9370440799999997 11.1729199399999999
  0.0900512800000000  7.8714072799999997 10.9504085799999995
 -1.7082265700000001 11.0999757500000005 11.0201804100000000
  7.0190180199999999  2.0062017299999999 10.8858411099999994
  4.9918052299999998  5.0044474100000000 10.8158961900000001
  3.4564897200000000  8.0258225400000001 10.9712313600000009
  1.7793163800000000 10.8828940099999993 11.0736869900000006
 10.3491502600000000  2.1053540000000002 11.0499927499999995
  8.5426430199999999  5.0653647599999996 11.0066556900000005
  6.9401523599999999  7.9933887800000001 10.9520326200000007
  5.2741871800000002 10.8815968999999999 10.9654336699999995
  1.8812296700000000  1.1451082900000000 16.8538755800000004
 -0.1895129600000000  4.0453528800000003 16.9200591600000010
 -1.8179280499999999  6.8867223600000003 16.7881665700000013
 -3.3678146099999999  9.9028433200000006 16.8835952899999988
  5.2686508999999999  1.2144261500000000 16.6937388099999993
  3.3879731600000000  4.0928941900000000 16.6813992000000013
  1.7244400499999999  7.0685967400000003 16.8778652300000012
 -0.0358502500000000  9.9572028299999999 16.9262216800000012
  8.6308651500000000  0.8938350700000000 16.7002084400000008
  6.7183544099999999  3.9226981699999999 16.7515555399999982
  4.9869766000000002  6.8896145899999999 16.7390351399999986
  3.4964924499999999 10.0690373599999994 16.8528020800000000
 12.2285593299999995  0.8720914600000000 16.8345570600000016
 10.1964504999999992  3.6539553699999998 16.9470130800000014
  8.7359728000000008  6.8352737599999998 16.7678791400000016
  6.9801750399999998  9.9834537900000004 16.8719246600000012
 -6.6897713500000000 11.8468072400000004 13.9358451100000007
 -1.6712032699999999  3.0222655600000001 14.0684225299999994
 -3.4773291000000000  6.1287663600000002 13.9112255299999994
  8.6261007000000003  8.9499209499999992 13.9552724300000008
 -3.2791101700000000 11.8006715700000004 13.9704368799999994
  1.6089046600000001  2.7281900499999998 13.9615523899999996
  0.0171690400000000  6.0782763400000004 13.9015499699999996
 -1.7342707900000001  8.9353430300000003 13.8455321599999994
  6.8250660600000002  0.0137872000000000 13.8104349499999994
  5.1352545899999997  3.0008960600000001 13.9163166500000006
  3.3534156500000001  5.9949858100000002 13.9858360099999999
  1.9048234900000001  9.0505338799999997 13.9988280599999992
 10.3376961000000005  0.0281166900000000 13.9340456600000007
  8.6761728199999997  2.8346184100000000 13.8659261100000002
  6.8060029300000000  5.8576940899999999 13.8768808999999997
  5.2155445100000000  8.9770843500000002 14.0057399399999998
