Sc  F  C 
 1.0000000000000000
    13.1286234000000004    0.0000000000000000    0.0000000000000000
    -6.5643117000000002   11.3697213799999997    0.0000000000000000
     0.0000000000000000    0.0000000000000000   26.8280942399999986
 Sc  F   C  
  32  32  16
Cartesian
 -0.0079222700000000  1.9154463300000000 12.1569929900000009
 -1.6573188000000001  4.6372839600000004 12.2412639500000004
 -3.3918369899999998  7.6029562300000002 12.1059966800000005
 -4.9370978200000000 10.5117977800000002 12.0477630500000004
  3.2133374699999999  1.8790234800000001 12.2220957499999994
  1.7349798100000000  4.7676522099999996 12.0511943099999996
 -0.0747550500000000  7.5066788999999998 12.1552316499999993
 -1.7006475800000000 10.3817898300000007 12.1992561300000002
  6.4855761899999997  1.8577040400000000 12.1235205599999993
  4.9165132900000001  4.7137026700000000 12.1716382799999998
  3.4731264999999998  7.5707515900000004 11.8587413399999999
  1.6964191000000000 10.4152920099999999 12.2234301199999997
  9.8214728299999994  1.9445772800000001 12.1945224000000003
  8.1997156600000007  4.6620673400000001 12.1988821200000004
  6.6173734499999997  7.6544612699999997 11.9914103799999996
  5.0752327099999999 10.4628548600000002 12.1127605400000000
  1.5666339100000000  1.0044148700000000 14.7907820099999991
  0.0789038500000000  3.9415042699999998 14.7210055999999998
 -1.7353821400000000  6.6362246000000003 14.6373286199999999
 -3.2961287800000001  9.5127030700000006 14.5909668999999997
  4.8365405099999998  0.8628510800000000 14.6300395099999996
  3.2704728099999998  3.7989754900000001 14.6199149399999992
  1.6170541300000001  6.7365891700000002 14.7079493299999999
  0.2363766000000000  9.4604456900000002 14.7548338099999992
  8.3106633799999994  0.9126123200000000 14.6929021800000008
  6.5211079400000003  3.6351118200000001 14.7946068700000009
  4.8788847899999999  6.4988273000000003 14.7076368300000002
  3.4835556099999998  9.4993385700000008 14.6243585399999994
 11.4917064700000005  1.1363691400000000 14.7032782500000003
  9.8414394499999993  3.7559459799999999 14.6887718300000003
  8.1783537899999992  6.5111135500000001 14.7409452499999993
  6.5443875699999996  9.3508593300000005 14.8613010299999999
  0.1071493000000000  2.0847636600000001 15.8451087099999999
 -1.7608102999999999  4.8268889200000000 15.8448617499999997
 -3.3242523400000001  7.2447076099999999 15.8599657100000009
 -4.8632112999999997 10.4035468499999997 15.8608006300000000
  3.1819355599999999  1.9263845700000000 15.7450546500000002
  1.7690456100000000  4.8655096300000000 15.8823170600000001
 -0.0020355500000000  7.4501402700000003 15.9489482400000000
 -1.9433688899999999 10.5045850000000005 15.8284607699999995
  6.4286125299999997  1.7457666800000000 15.6560763099999996
  4.7634974200000002  4.7803158600000000 16.0936484700000015
  3.4404982899999998  7.6194417200000002 15.6892356599999996
  1.7575737000000000 10.4397081400000005 15.9262940400000002
 10.0416522599999993  2.0776952700000000 15.9450245899999992
  8.1348161300000008  4.6575834599999997 15.8575478899999993
  6.4327367600000001  7.3709576800000001 15.8242490000000000
  4.9012901700000002 10.4442675400000002 15.8103116499999992
  1.4744693600000001  1.0916025100000000 10.8744279200000005
 -0.1595167100000000  3.9008457900000000 10.9883141200000001
 -1.7122430700000000  6.6992449299999999 11.0186237400000007
 -3.3621885699999998  9.4633957199999994 10.9166363200000003
  5.0422874599999998  0.8736435400000000 11.0564457300000001
  3.3111024300000000  3.5862440599999998 10.9838949899999996
  1.6252217400000000  6.7467211699999998 10.9028773399999999
 -0.0588517100000000  9.3626843799999993 11.2140956200000002
  8.1621007599999995  0.9705770200000000 11.0499578100000004
  6.5295589300000003  3.8933762199999999 11.0773968400000005
  5.3061046200000002  6.5153827099999999 10.8470089600000001
  3.3140421299999998  9.6300347599999991 10.8710199400000000
 11.2674072400000007  1.0762463499999999 10.9151633599999993
  9.9562626699999992  3.8395812999999999 10.9567289199999998
  8.2587853199999994  6.8130270399999997 11.0153140500000006
  6.4692356100000001  9.5159854199999998 10.7731656099999995
  0.1078134900000000  0.0143664900000000 13.3766329800000001
 11.4575079399999993  2.7850105599999999 13.4234870399999995
  9.7505812299999999  5.6617787999999996 13.4049866299999998
  8.1249882099999997  8.5737631899999993 13.3726614300000008
  3.2662054199999999  0.0561081600000000 13.2886124599999995
  1.5641376300000001  2.8235821400000001 13.3953083900000003
 -0.0085656000000000  5.7154511399999999 13.3609084399999993
 -1.7032252100000000  8.4475754199999997 13.4436546799999999
  0.0006066800000000 11.3295891700000002 13.4901416399999992
  4.8482964400000004  2.8145216199999998 13.4957405700000006
  3.3423813600000001  5.6225045600000003 13.2381901699999993
  1.7625502900000001  8.5450542800000004 13.5111470199999992
  9.9335898900000004  0.0233453200000000 13.5003080099999995
  8.1107282299999994  2.9113514600000001 13.5164253700000003
  6.5723604800000004  5.6734183099999997 13.4986385299999991
  4.9595135600000004  8.4561469999999996 13.3088117399999994
