




IVDW = 11

# SCAN + rVV10
METAGGA = SCAN
LASPH = T
ADDGRID = T
LUSE_VDW = T
BPARAM = 15.7  
#BPARAM should be set to 6.3, 15.7, 10, or 11.95 for the rVV10, SCAN+rVV10, PBE+rVV10L, and r^(2)SCAN+rVV10 functionals, respectively