
#PBE0  官网做法https://www.vasp.at/wiki/index.php/List_of_hybrid_functionals
LHFCALC = TRUE  #PBE0是杂化泛函
GGA = PE 

# revPBE + D3
GGA = RE 
IVDW = 12 or 11  #陈冰清用的12


# revPBE0 + D3   这个是杂化泛函
LHFCALC = TRUE
GGA = RE 
IVDW = 12 or 11  #陈冰清用的12
