Ca Si  O 
 1.0000000000000000
    10.2628755900000002    0.0000000000000000    0.0000000000000000
     0.0000000000000000   10.2628755900000002    0.0000000000000000
     0.0000000000000000    0.0000000000000000   10.2628755900000002
 Ca  Si  O  
  27  27  81
Direct
  0.5465436690536751  0.2227779436620843  0.5274794030704995
  0.1074690909314628  0.2345910392157448  0.1937463659734377
  0.3711193063385854  0.0919628248168212  0.0950389879957611
  0.5410980101338245  0.6259811232886631  0.5823941981547494
  0.6961831581551891  0.7562818609594000  0.0596210930001150
  0.8684409083828717  0.5139388043580484  0.1918137682501128
  0.9578684622834837  0.9143216379961983  0.4621451257405333
  0.3492156733822397  0.9688097992426312  0.4515675727878525
  0.9610730251481107  0.2433362353562351  0.9306946641063198
  0.0790209510860884  0.4449497687031788  0.4194994991652237
  0.0773193646401788  0.9585936118709202  0.6976794317741505
  0.3199937669711146  0.4946214757729515  0.2083833971527273
  0.5451123665038992  0.5937205743716903  0.9154605829144618
  0.7395960998880237  0.0402932878191501  0.0754705904020415
  0.9697618394300346  0.3745369897833868  0.6679994870716347
  0.2814063938194928  0.6850086263201014  0.9750629959648571
  0.8362911266665759  0.9833272284654091  0.8300813008296439
  0.7084811489953957  0.3633331873995756  0.0161269323152732
  0.7888529203148998  0.3933636215890248  0.4045570857397483
  0.2778258300995345  0.5036192833747486  0.7835697567878244
  0.3526721792795308  0.4440998071184842  0.4849137998758494
  0.1096071593322316  0.6710710092511216  0.2141300204536534
  0.5988864881095183  0.0020076916863415  0.3329885206179334
  0.1982055284760594  0.9014633110250925  0.2577416345743698
  0.5454484146192402  0.1172518793049113  0.9090037843867110
  0.8365508102198479  0.1183152138356965  0.5337374580802066
  0.7684295079718491  0.7445224063171169  0.7226273265191164
  0.7070140153574638  0.4466347935140467  0.6256912581359666
  0.3885020250937292  0.0268431744674399  0.6843827033082061
  0.4133806069064899  0.3628523124287430  0.0400398578737911
  0.1855634771462722  0.2365609110925606  0.6377223354804401
  0.6022812345131430  0.5478834378036147  0.2184002963247458
  0.5250919221169279  0.8391427728493004  0.8299696596049255
  0.1677390810113094  0.1370676900118205  0.4264975816587873
  0.8805592302809938  0.1637811591166331  0.2736049750750219
  0.2310907639093772  0.2166117401019766  0.8821211482697121
  0.2005119551488201  0.9404251455025190  0.9450131744216146
  0.4600819973498286  0.8481357903706206  0.1203597431507011
  0.9699365818776333  0.7283346421234362  0.9845899515576219
  0.1149403731590982  0.4376884149679144  0.0153452673784190
  0.5833342884749907  0.2514433101492951  0.2485834927674496
  0.1860112493091227  0.7005372029458655  0.4802517994861516
  0.0347799636534423  0.6950558084276650  0.7046217949914757
  0.8990828359052533  0.6200857824098401  0.5062897503174352
  0.7568841414748164  0.2250551991734706  0.7685471874652239
  0.4277123747146583  0.7269949367085722  0.3256402848005293
  0.2922016986079435  0.7596109435055521  0.6924101483724602
  0.9264551495941890  0.5103684083536669  0.8815309287014362
  0.7071994799461464  0.7471391777828226  0.4137242620515875
  0.4629046214522025  0.3368229741933372  0.7595001938438192
  0.3414038140941744  0.2370523230711793  0.2956078667616392
  0.0145166048924111  0.9962224252199086  0.0575143335631140
  0.6515218791617448  0.9521623471224403  0.6303100016435063
  0.8708230935497485  0.8388353570599991  0.2240051182380162
  0.6867002282349600  0.8400441547201879  0.2355273313802297
  0.0700463056085824  0.6181102045299177  0.9817409264726359
  0.4598226606778930  0.4238050809305386  0.8950469397632054
  0.1409854145956767  0.7949537513588821  0.6098202706557413
  0.5249537434955889  0.7049496114957777  0.1852309494867413
  0.2586122161108649  0.0929503268001712  0.3078667399104660
  0.6094417324998480  0.2983448501493527  0.8296312797844214
  0.4592073058541286  0.4634415499135949  0.6860831672617012
  0.0325478572813918  0.1301520074258252  0.3378600811821787
  0.1066502755881113  0.4672935589975324  0.1816877690514808
  0.8398639021210235  0.4910771747940482  0.5639483631312342
  0.3323367033040298  0.2214290546612774  0.5090053790664727
  0.4687768606186524  0.3312183179256488  0.3218987281906630
  0.4613401953944957  0.1351719114038291  0.3279952768091580
  0.0912549735000734  0.7711593111107762  0.3692073831326645
  0.1849042437822244  0.4133638123932475  0.6115803845576969
  0.2715000435857373  0.0670510534757442  0.8903504490401798
  0.0634516743664433  0.4266985701616598  0.8545936909286844
  0.0425155295096001  0.0377626491329220  0.9051527477397784
  0.3083256317637969  0.6505959086657894  0.5865923139383978
  0.4203015375342770  0.7149629687754989  0.7791577048631065
  0.4850591460789597  0.1517162218664292  0.7182319745922205
  0.3737160882800880  0.2341773042968360  0.9378924800938759
  0.3253581601684407  0.9178260417751005  0.0331198441430196
  0.8425114797674362  0.6491177030822801  0.9255582752319031
  0.7399007338059332  0.3001142138954839  0.6131260868183243
  0.3094358829697165  0.2943628385151262  0.1558211659077512
  0.6922312560158395  0.1862935171759205  0.4109669344632482
  0.6979955498028210  0.8991435469598243  0.4915159699407405
  0.2892364789935060  0.4778072867587007  0.9913282189558337
  0.7320624637913983  0.6563886720563862  0.5441693043070398
  0.9467056659506871  0.1234059878143763  0.1061302283602953
  0.5374895331845293  0.2536146986460741  0.1033697817630858
  0.1389323896110876  0.2810369330414927  0.9896281535261211
  0.0526425255048814  0.5934502242173239  0.5554114555918533
  0.4837039732642808  0.7729674144866059  0.9751877085747660
  0.9360971976860921  0.3147376017251321  0.2661073454559922
  0.4686504252946908  0.5636067522474957  0.3420165400251139
  0.0584448252090718  0.2098029213272379  0.5351511729667181
  0.4504858691364104  0.8894229789645146  0.2808281046306633
  0.5916820813765705  0.4303500038822940  0.5029080460674278
  0.2391830241410926  0.5691825199256849  0.3788062951662459
  0.2134707841664482  0.8559323391349811  0.8244434988809993
  0.8212418854821175  0.3836026575081965  0.8231657059383686
  0.4941874726555075  0.4749293750329873  0.1060234824497176
  0.8643108865748220  0.7853289615878506  0.3820558269088401
  0.7026584778077779  0.6203462152657743  0.3058571900704489
  0.8078746670259500  0.0120935510629141  0.3287349593604496
  0.2992995747695700  0.2924483682647858  0.7525379726443707
  0.7000795904610591  0.5529324642237040  0.0717994000354047
  0.2053613104356067  0.3164583241333047  0.3474773136171282
  0.9280517245362028  0.7352903700160707  0.5965764669276284
  0.6631281847196201  0.3963593199905486  0.2276724344468060
  0.7396813566946883  0.2020147698194985  0.1928871525957960
  0.0958297234898080  0.2097847607251371  0.7672963245966815
  0.9099007405974021  0.7090055907030633  0.1398439080172071
  0.0054919091151138  0.9311311704208236  0.2175739908779309
  0.5845512466160568  0.8241310386965337  0.6920056516050975
  0.8615774782085223  0.8934881553991438  0.0301762110710727
  0.0897441932256727  0.8385798945459106  0.0417015217856694
  0.5354041624897063  0.7540753331883662  0.4276019884988199
  0.1499762952889893  0.9929944186335011  0.4677630775021410
  0.7579438464185846  0.1789515359408152  0.9229156581834781
  0.9428576109242303  0.5672828418258162  0.7394132174216486
  0.5457286791488817  0.9741863547232185  0.0916916600759456
  0.1566157979705179  0.6411563817855849  0.7718854662643339
  0.9299637744122745  0.4341065738282033  0.0200310778589493
  0.3072894173123266  0.7120473463714666  0.1809042089342915
  0.2513743928177151  0.0753949147307163  0.6504382666885666
  0.6756563147619721  0.0724423533619002  0.7417565577251628
  0.1669154346632784  0.0521141053800887  0.0865859585071712
  0.3553320000832242  0.8711043353883235  0.6148611141840803
  0.4450275217649793  0.9672045853963236  0.8200225547116857
  0.3043518731770966  0.7748823865456212  0.3906813694503726
  0.9823365684977577  0.8076571139648786  0.8111371103544674
  0.8825322396800097  0.1652338114331560  0.7249350364579447
  0.6746428298075082  0.8622222438925619  0.8856890069735318
  0.6806978393859688  0.5503934321783979  0.7724803901671383
  0.5051365530584202  0.0156400794877023  0.5362069832905380
  0.9257782827707453  0.5484352792393150  0.3692207838602475
  0.8318388735334946  0.9449526679880564  0.6375752889741499
