Sc Cl  C 
 1.0000000000000000
    13.7939866799999997    0.0000000000000000    0.0000000000000000
    -6.8969933399999999   11.9459428800000005    0.0000000000000000
     0.0000000000000000    0.0000000000000000   27.8102210700000008
 Sc  Cl  C  
  32  32  16
Cartesian
  0.0202037600000000  2.0286550999999999 15.0799841400000005
 -1.7538784900000000  4.9040713599999997 15.1834988699999993
 -3.5760587600000000  7.9683079599999997 15.0927580999999993
 -5.0718607799999997 10.9054501699999999 15.1106672900000003
  3.4534087599999999  1.9378460600000000 15.0307829700000006
  1.6684493300000001  4.9577199299999997 15.1966582300000006
 -0.0656217500000000  7.8467696800000004 15.1307279200000000
 -1.7421159900000001 10.8850581599999998 15.2122828200000004
  6.9202121099999996  1.9273759100000001 15.2263244800000006
  5.0624019300000000  4.9920865100000000 15.1111308799999993
  3.4117796299999998  8.0835568700000007 15.2628277000000008
  1.8217748700000000 10.9458570900000005 15.0505846800000000
 10.3206348800000001  2.0081942599999998 15.2433490500000008
  8.4722164400000004  4.8860412400000000 15.2461508600000002
  6.8013699399999998  8.0193912300000001 15.1402909900000004
  5.2949025100000000 10.9085129900000002 15.1663769500000001
  1.7257993899999999  0.9443782700000000 12.7032288300000005
 -0.0001823000000000  3.9243159799999998 12.6527358900000007
 -1.7509584499999999  6.9404580700000000 12.6303492800000008
 -3.4013149700000000 10.0125098599999998 12.6231729799999997
  5.1969976000000004  0.9475283000000000 12.5404018799999992
  3.5311406100000000  3.8720112800000002 12.5619050899999998
  1.7667416499999999  6.8778958000000001 12.6688070699999997
  0.0259358800000000  9.9665393099999999 12.7108122600000009
  8.7159235099999997  0.9518600400000000 12.6593822700000000
  6.8293618800000004  3.9337975900000002 12.6352801400000008
  5.0311390700000000  7.0125653300000002 12.7000407200000005
  3.5064677000000000  9.9960860599999997 12.6612771599999991
 12.0431225800000004  1.0380151799999999 12.6012069899999997
 10.2860652899999998  4.0631793199999997 12.7410325800000006
  8.5904398799999999  6.9204041600000004 12.6234058400000002
  6.8509390600000000  9.9583177700000007 12.6551625300000001
  0.0373788700000000  2.0822123100000001 11.0120510899999999
 -1.6380466100000000  5.0545643599999996 10.9993568800000006
 -3.4525839100000000  7.9633769900000004 10.9745175100000001
 -5.1690377300000003 10.8499881800000004 10.9390194100000002
  3.3738789100000002  1.9798592399999999 10.9700533100000008
  1.7106739099999999  4.9853151899999997 10.9973958799999991
 -0.0278759200000000  7.9308083600000003 10.9815483700000005
 -1.7199262200000001 10.9057474600000006 10.9215880300000006
  6.7835165899999996  2.0460351700000001 10.7752824199999999
  5.1492825900000003  5.0551249299999998 10.8072692200000002
  3.4924811000000000  8.1625163100000009 10.8863199500000007
  1.7759026700000000 10.9604097899999999 11.1254576200000006
 10.3718105099999995  2.1462121800000000 11.0350780099999994
  8.5860345599999999  4.9641225300000000 11.0634382799999997
  6.8552976799999996  7.9377219200000004 11.0047286000000000
  5.1008295500000003 11.0357532999999997 10.9678976499999994
  1.7489244900000001  0.9176357900000000 16.8345615500000001
 -0.0019661500000000  4.0978364400000000 16.9729705499999994
 -1.7036818600000001  6.8787106400000004 16.7306229500000008
 -3.4782494700000002  9.9564864199999992 16.9614869400000003
  5.1542578600000004  1.0758230300000000 16.8918015799999992
  3.4910337199999999  3.9685971300000000 16.7687604199999996
  1.7883849599999999  6.9785938999999999 16.9721581400000012
  0.0539823700000000 10.0066440700000001 16.7501373700000009
  8.7165534699999991  1.0032969700000001 16.9806736799999989
  6.7442447300000001  3.9969708300000000 16.8580158599999983
  5.2469715199999998  7.1241489900000001 16.8560189999999999
  3.6554626200000002 10.0189609399999995 16.8659257700000005
 12.1901817700000006  1.0913113600000000 16.6871774399999993
 10.3732660299999999  3.8655239600000000 16.9025035499999987
  8.5698033599999999  6.8112588499999998 16.8608749099999997
  7.0043890900000001 10.0005021299999992 16.7635017200000007
  6.8980191199999998 11.8599143100000006 13.8434971000000004
 -1.7082497400000001  3.0346356000000001 13.8804272500000003
 -3.4721490199999998  6.0471626799999996 13.9322247499999996
 -5.1381173699999998  8.9441202900000008 13.9190094700000007
  3.5510479199999998  0.0066337700000000 13.8421625899999992
  1.7494044200000001  3.0533313299999998 13.9788929199999998
  0.0122957700000000  5.8785088800000000 13.9207310199999998
 -1.6488376300000001  8.9254926900000005 13.8798438399999995
  0.0653220100000000 11.9316189900000005 13.8840150199999997
  5.0826121999999998  2.9715814300000001 13.7802303899999998
  3.4375352800000001  6.0800787200000004 13.8952481700000003
  1.6999475200000000  8.9179325499999997 13.9998223799999995
 10.3190536200000000  0.0059232800000000 13.9148344000000002
  8.6726199200000007  2.9529619700000000 13.8579767599999997
  6.7844705300000001  5.9237842199999999 13.9324315199999997
  5.1756720999999999  9.0523957799999994 13.9791937399999995
