Sc Cl  C 
 1.0000000000000000
    13.7939866799999997    0.0000000000000000    0.0000000000000000
    -6.8969933399999999   11.9459428800000005    0.0000000000000000
     0.0000000000000000    0.0000000000000000   27.8102210700000008
 Sc  Cl  C  
  32  32  16
Cartesian
 -0.1555910000000000  1.9857519800000001 15.2034045700000000
 -1.7102625700000000  4.9860960600000004 15.1671300599999999
 -3.4845662200000000  8.0006272999999997 15.1253838599999995
 -5.1502982399999997 10.9563137899999994 15.2051215699999993
  3.5299994899999998  1.9624499600000000 15.0680399299999994
  1.7413387000000000  4.8699030499999996 15.1880076099999997
 -0.0200134000000000  7.9531678699999997 15.0833113399999998
 -1.7218905400000000 10.9926528200000000 15.1032721500000005
  6.8886811400000001  2.0527599200000002 15.1091337899999996
  5.2237886800000002  5.0392589100000000 15.1477867300000000
  3.5847666100000000  7.9598456400000002 15.0291455599999999
  1.8037997900000000 10.9103187500000001 15.1799437600000005
 10.4084528499999998  1.8704577600000001 15.2535941200000007
  8.5498838199999998  4.9458361999999996 15.0931815500000006
  7.0527478900000000  7.9056455200000002 15.1193155299999997
  5.2081733600000000 10.9442623700000006 15.2301063600000006
  1.7374066200000000  1.0966363100000001 12.7887889300000008
 -0.0409835100000000  3.9427439999999998 12.6855046100000006
 -1.6921240099999999  6.9704052699999997 12.5772021699999996
 -3.3099126999999999 10.0155822899999993 12.5908013600000004
  5.1507981999999997  0.9839665500000000 12.6477021399999998
  3.4433784200000002  3.9452895699999999 12.5945120500000005
  1.7848556300000000  6.9957947899999997 12.6405732700000009
  0.0778882200000000 10.0163242799999992 12.7584023900000005
  8.6305750799999998  1.0224889300000000 12.6490046300000003
  6.8809839500000001  3.9708982700000002 12.5847960899999993
  5.1677630800000003  6.9363058400000002 12.7167202800000005
  3.6022244300000001  9.9341055899999997 12.6495764499999996
 12.1229479799999993  1.0530726600000000 12.6630462999999995
 10.3190741399999997  3.9188413199999999 12.5918219199999992
  8.6398526300000000  6.8829750299999999 12.6133213099999999
  7.0146992399999997 10.0200509300000000 12.6440496899999992
 -0.0778122400000000  1.9333873200000000 10.9569885899999999
 -1.9334629699999999  4.9989160899999998 10.9566512599999992
 -3.4363512599999999  7.9250553799999999 10.9741060299999997
 -5.1277618499999997 10.8631590500000001 11.1152223299999999
  3.3628720900000002  2.0041622000000001 10.9364624999999993
  1.4620468300000000  4.9792848200000002 10.9728550800000004
 -0.1338459800000000  8.0939842899999999 11.0743314200000000
 -1.7572745400000001 11.0719040300000007 11.0999316100000005
  7.0360255699999996  2.0682779299999998 10.9046634900000008
  5.0638158700000000  4.9363626299999996 11.0247213300000002
  3.3858175099999999  8.0856071800000002 10.9316176499999997
  1.8513274000000000 10.7779283400000008 11.0019764400000000
 10.3132520000000003  1.8976562299999999 11.0143592300000002
  8.3910205599999994  4.9966983899999997 10.8558720300000004
  6.8659624700000004  8.0675025599999994 10.9447218199999998
  5.0758452600000004 10.9968251400000003 10.9968887599999992
  1.6334119100000000  1.0307164099999999 16.8232213199999983
 -0.1201640600000000  3.9675281400000002 16.9675407599999986
 -1.8787522100000000  6.9828150899999999 16.8801178800000002
 -3.5461401200000000 10.0605315999999991 16.8745316699999997
  5.0904901599999999  1.1500436800000000 17.0192270800000003
  3.5280153400000001  3.9953623199999999 16.7601025700000008
  1.8777986799999999  6.9746115299999998 16.6891609099999982
 -0.1135573900000000  9.8613120900000002 16.8379061499999985
  8.6354673900000005  0.7804158800000000 16.8334392699999995
  6.8987778000000004  4.0542816899999998 16.8673448400000012
  5.2161307399999997  6.9310864199999997 16.7473318599999992
  3.5443911300000002  9.8617538800000002 16.8516298499999984
 12.0920608400000003  1.0862613400000001 16.9584935799999990
 10.4698632400000005  3.8850953800000001 16.7361608500000010
  8.6257030900000000  7.0371100699999998 16.8530390700000012
  6.7791763800000000  9.8746370599999995 16.8123997900000006
  6.8749728399999999 11.8890708099999998 13.9486675400000006
 -1.6607057199999999  2.9916989500000000 13.9766096999999991
 10.2785921200000008  5.9446141399999997 13.8719006599999997
  8.5778112100000001  9.0065329500000004 13.9261183899999992
  3.5512085700000000  0.0581240300000000 13.9167737500000008
  1.7974763899999999  3.0229936400000001 13.9376169099999991
 -0.1214674400000000  5.9342099199999998 13.8553993700000007
 -1.7446496800000000  8.9631909000000007 14.0118138999999999
  6.9748306700000002  0.1397067300000000 13.8147400900000008
  5.2313143899999996  2.9764918800000002 13.7921714899999994
  3.5302237600000002  5.9413797099999996 13.9484876399999997
  1.6969371000000000  8.9179491399999993 13.9560441900000001
  3.5480087700000000 11.9224913200000007 13.9623648599999992
  8.5674327800000007  2.9310382499999998 13.8769569199999996
  6.9690216300000003  5.9799066800000000 13.8899628100000001
  5.2021682699999996  9.0199926099999992 13.8627433500000006
