Sc  F  C 
 1.0000000000000000
    13.1286234000000004    0.0000000000000000    0.0000000000000000
    -6.5643117000000002   11.3697213799999997    0.0000000000000000
     0.0000000000000000    0.0000000000000000   26.8280942399999986
 Sc  F   C  
  32  32  16
Cartesian
  0.0376304100000000  1.9067848599999999 12.1210133399999993
 -1.6113131100000000  4.7498813999999996 12.1572552599999995
 -3.3073342600000002  7.5490098500000000 12.1485530599999993
 -4.8988642599999999 10.3338818600000000 12.0960202799999994
  3.2587901499999998  1.8614444800000001 12.1332296900000003
  1.5865991800000001  4.7835347900000000 12.1574446700000003
 -0.0501737100000000  7.5697916999999997 12.1617503899999999
 -1.7122459999999999 10.3912736999999993 12.1574126299999996
  6.5763082099999997  1.8689843399999999 12.1295467400000003
  4.9319989700000004  4.8328486799999997 12.2584178500000007
  3.2929330100000000  7.5085655800000000 12.0883631299999994
  1.6776096899999999 10.4550472800000005 12.0475157500000005
  9.9076320899999999  1.8218307100000000 12.1385048599999994
  8.2373530899999992  4.7316831900000000 12.0023892599999993
  6.4977494299999998  7.5794182000000001 12.1526405600000000
  4.9715705200000002 10.3798639700000006 12.2069911300000005
  1.5806536300000000  0.9657599900000000 14.5998756299999997
 -0.0283164900000000  3.8146290500000002 14.7875193700000001
 -1.6800375400000001  6.6175453400000004 14.6651782100000005
 -3.2024131499999999  9.5493017699999996 14.7083602199999994
  4.8932515600000004  1.0108223999999999 14.7059757100000006
  3.2134145500000000  3.8206492500000002 14.8117989399999992
  1.6444299099999999  6.7612346299999997 14.7337637400000006
  0.0016655200000000  9.5204255999999994 14.6585160499999994
  8.1322379599999994  0.8772674200000000 14.7230464800000007
  6.5444304400000002  3.7583394800000001 14.6395368999999995
  4.9131828100000003  6.5979228699999997 14.6863254500000000
  3.3451314700000001  9.4800231299999993 14.7086680699999999
 11.6012892300000008  0.9316927100000000 14.6562423800000001
  9.7052288299999994  3.6910993900000002 14.6459713899999997
  8.1825249800000002  6.5966253899999998 14.6760516100000000
  6.7578412500000002  9.4765988199999995 14.7302446400000004
  0.0915847200000000  1.6969278600000000 15.8550290300000007
 -1.5511743499999999  4.7507311100000003 15.8648314900000003
 -3.3241942700000000  7.6288107800000002 15.8256734899999998
 -4.8643603000000004 10.5743578399999993 15.8397665500000002
  3.3296880400000002  1.9875671800000001 15.8872940600000003
  1.6325081500000000  4.7712680599999997 15.8854161299999994
  0.0440820500000000  7.7456051600000002 15.8166862600000009
 -1.7017196800000001 10.5118419799999998 15.7975029199999994
  6.4927281900000002  2.0396951200000002 15.8183740200000003
  4.9228968999999996  4.7696705699999997 15.9206590899999991
  3.1829506799999998  7.6403782900000001 15.7456050600000008
  1.6045448300000000 10.3981556099999999 15.8267184200000006
  9.8413907999999992  1.9002150799999999 15.8260791800000007
  8.2281644299999996  4.6513586499999997 15.7868705299999998
  6.6391571699999998  7.6277145900000001 15.8209089899999995
  4.9319680799999999 10.3852396299999992 15.8999058299999998
  1.7425860099999999  0.9154915300000001 11.0818779200000002
 -0.0130655100000000  3.8275147800000000 11.0110368300000001
 -1.6302870300000001  6.6971301299999997 10.9395210800000005
 -3.2131856100000000  9.4289752700000005 10.9833631900000004
  4.8933507199999999  0.7819172800000000 11.1007190799999993
  3.2095763399999999  3.8189688600000000 11.0635734600000006
  1.6368389100000000  6.5328531999999999 10.9877465000000001
  0.0876793900000000  9.3963922600000007 10.9188927699999994
  8.0704265199999998  1.0191960700000000 10.9369025099999995
  6.5951132699999997  3.7910310699999998 10.9019481599999999
  4.8794591199999999  6.5831040500000002 11.0753676199999997
  3.3600134200000000  9.4185203400000006 10.9359887899999997
 11.4984375900000000  0.9550625400000000 10.9328047500000007
  9.8774869200000008  3.8855556199999999 10.9314222900000004
  8.1425688500000000  6.5595030400000001 11.0337525900000006
  6.4961197899999998  9.4718800200000004 10.9925885700000006
 -6.5130762200000003 11.3386380100000004 13.3998030799999999
 -1.5759320299999999  2.8547589900000001 13.4218175800000008
 -3.2582996700000000  5.7240609400000002 13.3966806999999992
  8.1502787100000003  8.5426042899999999 13.3389119899999997
  3.3189052000000001  0.0291139500000000 13.3087636099999997
  1.6173423499999999  2.7856923199999999 13.3957087700000006
 -0.0470773500000000  5.6871055100000003 13.5030143999999996
 -1.6706246100000000  8.5526197100000001 13.4380694799999993
  6.5469110099999996  0.0192838600000000 13.4650352600000005
  4.8793503100000004  2.8604628100000000 13.3948638199999994
  3.2670275300000000  5.7277508600000004 13.4704420299999992
  1.6670291300000000  8.4627058000000002 13.3618417399999991
  3.2224278499999999 11.3229956600000001 13.3208307900000005
  8.1814843400000008  2.8716868400000002 13.4027493199999999
  6.6181188999999998  5.7277101600000000 13.4134522700000005
  4.9226028199999998  8.5154800999999996 13.4331364000000004
