Ca Si  O 
 1.0000000000000000
    11.1219476799999999    0.0000000000000000    0.0000000000000000
     0.0000000000000000   11.1219476799999999    0.0000000000000000
     0.0000000000000000    0.0000000000000000   11.1219476799999999
 Ca  Si  O  
  27  27  81
Direct
  0.3867051180014182  0.3631256337648947  0.4389071330355332
  0.5609049691195814  0.2647561771302992  0.6624906043435010
  0.1374786201116170  0.6858524531379561  0.7650470722228752
  0.3885507129089462  0.5731633957839297  0.9857225492720533
  0.2825180823004914  0.9560337600868843  0.8424010532658791
  0.0315698509022297  0.2637839445401887  0.1576136276159860
  0.9841715286687988  0.9836270116314735  0.1817259843466554
  0.2622478295995724  0.8040150904576094  0.3239109024472591
  0.7240467211045178  0.6649679788819147  0.2667943390289353
  0.6631242577469129  0.8004588707074370  0.8356363676042755
  0.9773900195149992  0.7504083268624043  0.3409830201610874
  0.3073019572053948  0.2030125815157584  0.9070123453412973
  0.5233753500268219  0.0854247661772852  0.1680637460074799
  0.8648961393064204  0.5132410567139082  0.4997321053752700
  0.6123701752569294  0.5378348659881486  0.7469255906443896
  0.7798637621355902  0.0981913304594866  0.9177470982312695
  0.2945347941072134  0.0950881338798026  0.3750002508553430
  0.1503612126324982  0.5282516281356935  0.2174138828532954
  0.9508495233273746  0.6668858228255934  0.0958734414762145
  0.0837721338750265  0.4055039422735353  0.6996198412255074
  0.6554893620934567  0.3621298882067749  0.1836083893536172
  0.4701036275689439  0.9965513594288010  0.5528248492893467
  0.7824985083907533  0.2326606736923618  0.4508701986629018
  0.7399072012178356  0.9553439528498123  0.3850454986136025
  0.9489965430227594  0.8121119645475621  0.5716709620414254
  0.5116582844777418  0.8331318575309105  0.0486437632657520
  0.4137050130413848  0.6996545123111026  0.5481278104699734
  0.7959033394769575  0.3286040741382089  0.7803516173347076
  0.0493760828409148  0.0529441647220552  0.7142671048781628
  0.0707263532101061  0.2926597682034771  0.4307671648748486
  0.2785736014179847  0.0120213620713598  0.1271161878006605
  0.1713190984908499  0.6150802994966076  0.4978874779241903
  0.3161147661503835  0.4595547719749747  0.7217959138969803
  0.7569005908145038  0.8836362094808918  0.0936132869850005
  0.4346316642626034  0.7370831778629621  0.7918189649315093
  0.4993366890213603  0.8775911100132059  0.3552697813086637
  0.8909846085519437  0.5984965872452297  0.7596915255404257
  0.8031167891629570  0.1590150017681076  0.2031045051634338
  0.0931580519717028  0.4779690763659482  0.9332032804527631
  0.3536526805528004  0.3505752995953673  0.1664650044460558
  0.7565595660129917  0.0064851069322779  0.6528665498991090
  0.7000171960888059  0.5961487403796166  0.0003733788468964
  0.4513390365094758  0.6104467792281504  0.2618280272291301
  0.2119403010894221  0.7675938779456656  0.0390942065643668
  0.6803493603559192  0.7269779801733431  0.5623886561926354
  0.2490071055612087  0.1853558278921880  0.6258259578505767
  0.5171461757856426  0.0591069234377121  0.8635056319560028
  0.9777416530698875  0.8714162311182532  0.8982367933599198
  0.5949536196703273  0.4816029317987224  0.4585284652229186
  0.5411824478210456  0.3497514447937054  0.9335259496563285
  0.0227089568542189  0.2081244865197927  0.8854240743919772
  0.8841431710457390  0.4518533007520855  0.1772948719715610
  0.0421848576795319  0.0203625225109852  0.4228492792190513
  0.2218666362221189  0.9109173457287834  0.5584160120774817
  0.0764453020696102  0.7887276979170252  0.9559635295820776
  0.6571455297477177  0.8618406978515835  0.2140888429354669
  0.6703960731093819  0.9287450244506095  0.9879273690307451
  0.0318389251764579  0.5836391391835787  0.4501957070885987
  0.2389204783599558  0.0519422421882855  0.5386773038658998
  0.6357308929545333  0.5706059057814233  0.5571968371280811
  0.0057831120816781  0.1395585031200219  0.0087571900895689
  0.0876507908550061  0.1401179500963090  0.3669061649461023
  0.2110249299428461  0.7490234147549956  0.5305961878072780
  0.4382923378398773  0.4298657957722024  0.6242156553644208
  0.2158513786498949  0.3865974902697977  0.1058107297264322
  0.7742350501688388  0.4971229499615844  0.1070366471999084
  0.4680248073240351  0.5360812711537589  0.3993415980536243
  0.6955716186213888  0.4878836060124317  0.3408808438127808
  0.2424032208718320  0.9075483926390849  0.0224650814037996
  0.3688289630580243  0.4946790075171438  0.2108160546570742
  0.9360427552379926  0.9355673717753004  0.3848525324118410
  0.7620424321219248  0.5923514998948458  0.8705468519161385
  0.1211524967360753  0.9104181840567693  0.6774888119236323
  0.5553094078212747  0.6521435695155149  0.1858859607582689
  0.9822174968188665  0.4307586636660027  0.0802103998029237
  0.4583502761091931  0.3262647806305811  0.0541274071161608
  0.8210941781736559  0.4499310771798200  0.7064254064176644
  0.2262802165960198  0.4946640577974738  0.5979122687259395
  0.5754046632954489  0.1949863578210970  0.8856700672772810
  0.6201725334856097  0.0493041314145078  0.7306031590682684
  0.7515873226981409  0.2087401394788795  0.6900781734301414
  0.9263576647215443  0.5647598433946238  0.2664896738661874
  0.1096288595380265  0.3343961792490648  0.8942575299005542
  0.9996298984567782  0.0361285821117979  0.5685423193790820
  0.7251327197396058  0.0680200610330510  0.5263888968411331
  0.6806771329821613  0.1784926702694217  0.2756090756938356
  0.3153390396096523  0.6906474496200831  0.1296184141013690
  0.9427818194879334  0.3609289249956262  0.4613456624352686
  0.8122006774266716  0.6671852541928159  0.6497728822259664
  0.3743570775366208  0.1890565277322002  0.5637868582384843
  0.8943537486592457  0.2893145267879915  0.8815335903468303
  0.2657379602059052  0.5958333675599524  0.3804053113474096
  0.7727227862665147  0.2153825399041978  0.0689022994936441
  0.4334768449477187  0.4055740603879553  0.8494152725595270
  0.5043940199510092  0.0328670355694390  0.3627327268635380
  0.8795854729286049  0.8205937523345731  0.2071386726753600
  0.1794923656752897  0.0219935947405931  0.2376082882274447
  0.5253950349458936  0.6823056858688621  0.8929651888094478
  0.2613100415160378  0.1367659247970855  0.0721244347734605
  0.5591070933719767  0.7308231340286253  0.6682468901885718
  0.8922760945769885  0.8934783228543294  0.0177630021003659
  0.7898827222319751  0.7351228386645314  0.4425005306264846
  0.8393487695313452  0.3377744553461162  0.2395178647342819
  0.3792843368239977  0.5982942791545303  0.7306370748904655
  0.5817401003993933  0.4812387141170223  0.9767306853578005
  0.1136433506401821  0.7680422877155632  0.1715803980476916
  0.3894874364307386  0.2660088749851051  0.2733405467701319
  0.9972851283903900  0.6105643476646888  0.6555839408516260
  0.5753997981403919  0.3517943162991035  0.5070692501225648
  0.3014659200410840  0.7299183887187644  0.8928539618880854
  0.5685276564796787  0.8325110660833462  0.4952627595888852
  0.2599456258186605  0.3130350771439702  0.7360741171909558
  0.4428069715573415  0.7402765106336123  0.3474548668259874
  0.9029518344218644  0.7625852354306345  0.8181524389260568
  0.2006763513205090  0.1021016887214848  0.7495733795791422
  0.3544140750714267  0.8748660693214122  0.4467307815999364
  0.4146899430478170  0.0963564198316746  0.7620570545607889
  0.4717862042666973  0.8770286707552646  0.8581534785641070
  0.9848668169602466  0.5340365528495274  0.8672226751564793
  0.7481301809180962  0.8485082695515790  0.6134723032611855
  0.6668872686155272  0.3438143623779392  0.8407615922178119
  0.0544772388283704  0.0104023371920771  0.8651669057303100
  0.9910745219402075  0.1912708422307557  0.7230400143367693
  0.7221326903418772  0.7295908381759264  0.0585942695245623
  0.1480699898419231  0.5740338440434022  0.0315692907485427
  0.9061267765287672  0.1488506615596667  0.2976879810317539
  0.8691073468527590  0.9814313062835771  0.7436397965504545
  0.1970568369010706  0.5098828112811262  0.8380877278142347
  0.3968505928091184  0.9249846875740741  0.2121247085384599
  0.4448984424641709  0.0327984621484930  0.9985715595454051
  0.3268926194049494  0.8652187680494465  0.6741408722397442
  0.7949954355476700  0.0253175584080791  0.1400622979733348
  0.1378034247325285  0.2588238708564038  0.5596599695566991
  0.1526977350427529  0.3417300781619932  0.3232411564446417
  0.1264860131044961  0.8946060210202319  0.4426580497994214
