Sc  F  C 
 1.0000000000000000
    13.1286234000000004    0.0000000000000000    0.0000000000000000
    -6.5643117000000002   11.3697213799999997    0.0000000000000000
     0.0000000000000000    0.0000000000000000   26.8280942399999986
 Sc  F   C  
  32  32  16
Cartesian
  0.1116555200000000  1.8992636199999999 12.1288710099999992
 -1.6165934900000001  4.6806333999999996 12.0307217699999995
 -3.2915228000000001  7.5123398500000000 12.1969910699999993
 -4.7492064300000001 10.4827249600000005 11.9834482300000005
  3.4490533399999999  1.9202050900000001 12.1063658000000007
  1.5914106100000001  4.7508160899999998 12.2640444100000003
 -0.1803323200000000  7.5866008799999998 12.2603208200000005
 -1.6999090600000000 10.3878828700000003 12.2403251799999992
  6.5842681799999996  1.9544700800000001 12.1375740299999997
  4.9441809100000000  4.7824259199999997 12.1632874500000003
  3.1692632600000001  7.5909095400000002 12.2340477599999993
  1.6308163499999999 10.3011920900000007 12.2179905600000005
  9.7726347899999997  1.8908589899999999 12.0095898800000001
  8.0351024500000001  4.6855090500000003 12.0154030899999995
  6.5573891800000004  7.5724447499999998 12.0929400499999993
  4.9562829500000003 10.4684364399999996 12.0565391599999998
  1.7682558300000000  0.9664483000000000 14.6874966800000006
  0.0907955900000000  3.7843275699999999 14.7540919099999996
 -1.6004114199999999  6.5544245700000001 14.8737833500000001
 -3.3505050100000000  9.3680448199999997 14.5443688499999997
  5.0060834700000001  1.0499076700000001 14.8668139600000000
  3.1998454000000001  3.8991728200000000 14.6510166900000005
  1.5071809599999999  6.7361385399999998 14.8246404100000007
 -0.0860612500000000  9.6320011399999999 14.7810760400000003
  8.3390353699999995  0.9335917600000000 14.6938460699999993
  6.5727901800000001  3.7207417199999999 14.5649764699999995
  4.8982988599999997  6.5666698700000001 14.7736043600000002
  3.3083662899999999  9.5271477699999991 14.7241761699999998
 11.5316618399999999  0.9610470200000000 14.6217841800000006
  9.9145504399999993  3.8038262700000001 14.5212323399999992
  8.1245118999999999  6.5847926699999997 14.7369358500000001
  6.6370192899999996  9.5702099500000006 14.5341382800000005
 -0.0809383300000000  1.8873148799999999 15.7798594199999993
 -1.4406750800000001  4.5669718200000000 15.8316141300000002
 -3.3252165100000002  7.4525115800000004 15.8010419800000008
 -4.7620002200000000 10.3467296199999996 15.8144030499999992
  3.1715100100000000  1.7003181999999999 15.9872642200000001
  1.4643901100000001  4.8034598900000001 16.0298437800000002
 -0.1220788400000000  7.6970404600000002 15.9000906999999998
 -1.7421279800000000 10.4090782999999991 15.8453672000000001
  6.8348766200000002  1.8282167000000000 16.0276954499999995
  4.9708919600000003  4.4869877200000001 15.7676396299999997
  3.2934952499999999  7.6756075800000003 15.7744576500000004
  1.6478653200000000 10.4760918000000007 15.8949162000000008
  9.8196597699999995  1.8045732500000000 15.7847252400000002
  8.1825091000000008  4.5090431500000001 15.8516586000000004
  6.4728366399999997  7.4928491800000003 16.0836100299999991
  4.9071517199999999 10.4138523099999993 15.8736798799999992
  1.5572943299999999  1.0879640699999999 11.1223124500000008
  0.1971280200000000  3.9729181800000002 10.9375557800000003
 -1.5912869599999999  6.5099118000000002 10.8466436200000000
 -3.0665723400000000  9.4532729900000003 10.9364770500000006
  4.7848702899999997  0.6421977500000000 10.9466767699999998
  3.4061685000000002  3.8189891800000000 10.9501221500000003
  1.5041105100000001  6.7808540400000004 11.1943469899999997
 -0.0045507700000000  9.3925389599999995 11.1225010900000001
  8.3644248500000007  1.1329310100000001 10.7037747299999992
  6.3094741499999998  3.5949527400000001 10.8920098799999998
  4.8009386799999998  6.5109038200000002 10.9614466099999994
  3.1736768899999999  9.7279357399999995 10.9974933999999998
 11.4945755300000005  1.2497032699999999 11.0419842399999997
  9.8158783900000000  3.7886218199999999 10.8257256300000009
  8.2564052100000005  6.5367085300000003 10.7380562699999995
  6.6803321400000000  9.4204130399999997 10.8211748700000001
 -6.5107941000000000 11.3057207300000009 13.3846397199999991
 -1.5633872400000000  2.8318468299999999 13.3680189800000004
  9.7646766599999992  5.7134299799999999 13.3155099600000000
  8.1154656500000009  8.5507702400000003 13.4268113499999995
  3.2701148299999998  0.0081709500000000 13.3826000500000006
  1.6703280100000000  2.8598647300000000 13.3863090499999995
 -0.0673761500000000  5.6621639400000001 13.4527968199999997
 -1.6479730200000000  8.6460374699999996 13.4813539099999993
  6.5627957200000004  0.0667923000000000 13.6059549299999993
  4.9199754200000001  2.7126779000000001 13.4621540799999995
  3.3409302699999999  5.7216609800000002 13.6478491200000001
  1.5811480800000000  8.5824804399999994 13.5052134499999994
  9.8007060999999993  0.1789345300000000 13.3761256199999998
  8.2140017499999995  2.8761024800000001 13.2773634000000005
  6.4723893900000000  5.6223645900000001 13.3028782400000001
  4.8783862500000001  8.6412276600000002 13.3467936100000006
