Sc Cl  C 
 1.0000000000000000
    13.7939866799999997    0.0000000000000000    0.0000000000000000
    -6.8969933399999999   11.9459428800000005    0.0000000000000000
     0.0000000000000000    0.0000000000000000   27.8102210700000008
 Sc  Cl  C  
  32  32  16
Cartesian
 -0.1080165700000000  1.9726726299999999 15.2277599800000001
 -1.7710149100000001  5.1609976199999998 15.0643626299999998
 -3.3878454300000000  8.0715180100000001 15.2744373899999992
 -5.1724304700000001 11.0456457100000005 15.0638269299999994
  3.4930688999999999  1.9813497000000000 15.0942764500000006
  1.7113069999999999  4.7814942800000004 15.2941230800000003
 -0.1050467700000000  7.9641937900000004 15.1796496699999999
 -1.7159282199999999 10.9719069699999991 14.9598208899999996
  6.9706733700000001  2.0140525199999999 14.9239415100000006
  5.3781282600000004  4.8672981599999998 15.1751734000000003
  3.3147836800000001  8.0287512400000001 15.1976282200000004
  1.5423066400000001 10.9401281699999995 15.2794058400000008
 10.4569971000000006  2.1140230999999998 15.0743073699999997
  8.6667381199999998  4.9928150699999998 15.1089868999999997
  6.8142297000000003  7.9486147699999998 15.3942998899999992
  5.1329688300000003 10.8781095299999997 15.0480705300000004
  1.7741410300000000  0.8967989600000000 12.6370257899999991
  0.1304896000000000  3.9345153499999999 12.7024956299999996
 -1.7806229200000001  6.9000760500000000 12.7246020899999994
 -3.4587204699999998  9.9225583299999993 12.7319695799999995
  5.1114710600000004  1.0114801899999999 12.6274975299999994
  3.6982181700000001  4.0344158300000004 12.6347331799999996
  1.8071736899999999  6.8014071200000004 12.7518568900000009
 -0.1488345200000000  9.8057748300000007 12.5593877000000003
  8.5120313799999998  0.7805403100000000 12.5062364200000005
  7.0234860100000001  3.9791201300000001 12.5149547099999996
  5.2922187300000001  7.1409603099999996 12.7399844499999997
  3.3637228499999998  9.8540927099999998 12.6645323500000000
 11.9745418499999996  0.8260559100000000 12.6464104499999994
 10.4234348299999997  4.0003983300000003 12.5747970099999993
  8.5968676199999994  7.0463734799999997 12.7470956700000002
  6.7831898099999997  9.8989867100000009 12.5697229000000004
 -0.0017982500000000  1.8409368600000000 10.9950571400000001
 -1.7135327600000001  5.0123986900000004 10.9297081400000007
 -3.4437715700000000  7.9873887200000002 10.9928909699999995
 -5.3798485300000003 11.0938471900000000 10.9802230400000003
  3.3605178400000000  1.8436959100000001 11.0289259099999999
  1.6967544400000001  4.8756477299999998 10.9965037100000007
  0.0225552400000000  7.8471974199999996 10.9699050600000003
 -1.9391509099999999 10.9845235300000006 11.1098494500000005
  6.9828381600000000  2.0893354500000001 10.8700758799999999
  5.2523534999999999  5.1555468500000003 11.0387686400000007
  3.1675291500000000  8.1020512700000005 10.9172063500000007
  1.6600421700000001 10.9150439200000005 10.8770109300000009
 10.3895180600000003  2.1317787600000000 10.9114472399999993
  8.7724236199999996  5.1280379500000004 10.9372647300000008
  6.9796331199999999  8.1134665100000003 10.9460875699999995
  5.1513147400000001 10.8955539100000003 10.9532046300000001
  1.6570463000000000  0.8675530400000000 16.6808152499999984
  0.1189796300000000  3.8781927800000000 17.0083017400000003
 -2.0335242800000000  6.7021565699999996 17.0189915300000010
 -3.1700706900000002 10.0922107600000004 16.7158622200000018
  5.2423299300000004  1.1121394400000000 16.8621985099999989
  3.7157895999999999  4.1383607800000002 16.8009082399999983
  1.7073837500000000  6.8559269199999999 16.8379914399999997
  0.0758263000000000  9.7962291900000000 16.9975185199999999
  8.5665969799999999  1.0167503099999999 17.0062961900000005
  7.0257010800000002  4.2522651299999996 16.8722721699999987
  5.1481275799999997  7.1600279899999997 17.0439059099999994
  3.4587566500000002  9.9572393300000002 16.7526750000000000
 12.1114719999999991  1.0531265700000001 16.8765746000000014
 10.2696011200000008  3.9719057499999999 16.7363643300000007
  8.4995347300000006  6.9720130700000000 16.9103744800000015
  6.9277956200000004 10.0204164500000008 16.8995660799999996
 -6.8671868299999996 11.9185457699999997 13.9171148200000001
 12.0534045299999999  2.9416899800000000 13.8232781300000003
 -3.4447331299999999  6.1002744900000003 14.0595721999999999
 -5.0699823200000003  9.1363328900000003 13.8803667500000003
 -3.3596054999999998 11.9198665100000003 13.8508714899999994
  1.8084954499999999  2.8169329400000001 13.9262637799999993
  0.0900744300000000  5.9599695600000002 13.9497900099999992
 -1.6964330299999999  8.9657177899999994 13.7593935799999993
  6.9173134300000001  0.0355695400000000 14.0180881799999995
  5.1867083200000001  3.0165352099999998 13.8091325800000000
  3.5980254100000000  5.9139316700000002 13.8222757400000003
  1.6213636400000000  8.8605571100000002 13.8718404900000003
  3.2512902700000001 11.7426506100000001 13.8192126700000006
  8.6568701299999997  3.1011046300000000 13.8543936799999994
  7.0506307799999997  6.0055781200000000 13.8021218999999995
  5.0100962600000001  9.0557392799999992 13.8204362900000000
