Sc Cl  C 
 1.0000000000000000
    13.7939866799999997    0.0000000000000000    0.0000000000000000
    -6.8969933399999999   11.9459428800000005    0.0000000000000000
     0.0000000000000000    0.0000000000000000   27.8102210700000008
 Sc  Cl  C  
  32  32  16
Cartesian
 -0.0538519100000000  1.9146375899999999 15.1033435199999992
 -1.7526752100000000  4.9922607899999996 15.1784394500000008
 -3.5787277700000000  7.9884902000000002 15.0439866400000000
 -5.1616201700000000 10.9368466400000006 15.1950642400000007
  3.4705544000000002  1.9598163799999999 15.2205438799999992
  1.7724861500000000  4.9199171000000002 15.2054637400000008
 -0.0056183700000000  8.1025003699999996 15.1463747600000005
 -1.7851483100000001 10.9989743000000004 15.1750278299999994
  6.9416143899999998  2.0789426500000001 15.0718520300000005
  5.1024546700000002  4.9593625200000000 15.0595321299999991
  3.3560745100000000  7.7907779000000001 15.2050685100000003
  1.6855319499999999 10.9014571100000008 15.1536655600000003
 10.3460540800000000  1.9060804400000000 15.0917183300000008
  8.6720951100000008  4.9911218399999999 14.9997048100000008
  6.9126722300000001  7.9666544799999999 15.1478572400000004
  5.1273166600000000 10.8217802499999998 15.2294658100000007
  1.6880163399999999  0.9751249000000000 12.6732462300000002
 -0.0388298000000000  4.0941469399999999 12.6980282800000008
 -1.7661819100000000  7.0491242999999999 12.6601422299999999
 -3.5840635299999999  9.9771374300000009 12.6772869900000007
  5.1432704100000004  0.9656722200000000 12.6474142700000005
  3.4328395800000000  3.9869373000000001 12.6576699599999998
  1.7618540700000000  6.9608222599999996 12.7726930299999992
  0.1235864500000000  9.9622048299999992 12.5437763899999997
  8.6156043699999998  0.9701336699999999 12.5354391599999992
  6.8802551200000002  3.9171878100000002 12.5870402099999996
  5.3218329799999999  7.0841598100000001 12.6814595299999997
  3.5450324100000001 10.0240667000000006 12.7262135999999995
 12.1587780199999997  1.0330371800000000 12.6828951399999994
 10.3570661299999998  3.9575800200000000 12.6492056999999996
  8.5627167600000007  6.9413520399999999 12.6626340000000006
  6.8809579500000000 10.0190573100000009 12.7070929800000005
 -0.0243155100000000  2.0595904500000000 11.0732478099999998
 -1.8048203400000000  5.0270233400000004 11.0088374800000004
 -3.5951399500000001  7.9689136999999999 11.1124376599999994
 -5.2415469000000003 10.9453400100000007 10.9864602599999994
  3.3781315500000000  1.9252150500000000 11.0533845100000008
  1.6846300800000000  4.9625457400000004 11.0317487300000003
  0.0412489300000000  7.9451328099999996 10.9420724400000005
 -1.7787112300000001 10.9737533500000009 11.0094139299999991
  6.8472442500000001  2.0407682800000000 10.9403675400000004
  5.1224401400000001  5.1054670900000003 11.0051617299999993
  3.4774253499999999  8.0466707300000007 11.0393971700000009
  1.9381903899999999 10.9548522800000008 10.8813914700000005
 10.3132876499999995  2.0403391000000002 10.9572902100000000
  8.6357564599999996  5.1053431099999997 10.8498064099999993
  7.0697963699999997  8.0404092299999999 11.0241134400000007
  5.1650766399999997 11.0206536400000008 11.0494855600000008
  1.7648188400000000  0.8737049700000000 16.9352436699999984
  0.0314636200000000  3.9100343400000002 16.7381340399999985
 -1.7915815200000000  7.0667589499999997 16.7383966000000015
 -3.4463565900000002  9.9551610299999993 16.6995990100000000
  5.1822504000000000  0.9714834500000000 16.9237711100000006
  3.5118043399999999  4.0924740699999997 16.8514181399999998
  1.6561193299999999  6.7858702299999996 16.8497391500000013
  0.0713148100000000  9.9939377000000000 16.9039406700000008
  8.6056780699999997  1.0074641499999999 16.8985508200000005
  6.8487150100000003  3.8437497000000000 16.7919848899999984
  5.2308950500000000  6.8094435400000002 16.8872470300000010
  3.5002819800000000  9.8935764499999994 16.7514821500000011
 12.0776568500000003  0.9386621700000000 16.8185359599999984
 10.4381126599999998  3.9325282700000002 16.8735086400000007
  8.6637356899999993  6.8975174199999998 16.7421883800000018
  6.9355001100000004  9.9211326100000008 16.8845489899999990
 -6.7806569999999997 11.8978831899999999 13.8967425299999991
 12.0843022199999997  2.9493881200000001 13.8362345900000001
 10.2825963999999992  5.9702037600000004 13.8479342600000006
 -5.1133506200000003  9.0356600999999994 13.8566792099999994
 -3.4105516100000002 11.9131427500000004 13.9509566399999994
  1.7089833000000001  3.0552517500000000 13.8546945899999994
  0.0431683500000000  5.9899923499999996 13.9009498699999998
 -1.7490332000000000  9.0333101800000009 13.9380374099999997
  6.9792014599999996  0.0319190400000000 13.8452494799999997
  5.1535334700000002  2.9901531900000000 13.8968954700000005
  3.3898638600000002  5.9754941300000004 13.9745293900000007
  1.6668306300000000  9.0851431999999992 13.8290651600000007
  3.6256344199999999 11.8561703600000001 13.9464604300000001
  8.5523455899999998  2.9752108599999998 13.9337358699999996
  6.9192974700000001  5.9977497700000004 13.8812342900000001
  5.2860145200000002  8.9456988899999992 13.8902879699999993
