Sc  F  C 
 1.0000000000000000
    13.1286234000000004    0.0000000000000000    0.0000000000000000
    -6.5643117000000002   11.3697213799999997    0.0000000000000000
     0.0000000000000000    0.0000000000000000   26.8280942399999986
 Sc  F   C  
  32  32  16
Cartesian
 -0.0631934100000000  1.8718412700000000 12.1967161399999995
 -1.7476711100000000  4.7054277400000002 12.2121380500000001
 -3.2049578699999999  7.5601926600000002 12.1918972599999993
 -4.8862610300000000 10.4921025700000001 12.1894108699999997
  3.3515976400000000  1.9461204999999999 12.1085351499999998
  1.5967393999999999  4.6793951199999997 12.1410707700000007
  0.0388209500000000  7.5216320100000003 12.1902380499999996
 -1.6147421500000001 10.4322274499999992 12.1315443500000004
  6.5945594099999996  1.8874155900000000 12.1871322699999993
  4.9616541999999999  4.6044829299999996 12.0835115599999998
  3.3281010300000000  7.5486031000000002 12.1558359500000002
  1.5910301300000000 10.4306283200000003 12.0547513399999993
  9.8036212200000001  1.9847743799999999 12.1496970999999991
  8.2044270000000008  4.6821680600000004 12.1349595800000003
  6.6288317100000000  7.5839206199999998 12.0474389300000002
  4.8329323600000000 10.3570236900000001 12.1470711599999994
  1.5138771700000000  0.9777180900000000 14.7351131399999993
  0.0004536500000000  3.7571080000000001 14.7270761799999992
 -1.7114929600000000  6.7032973699999996 14.7323517800000001
 -3.2714698800000002  9.5282170300000004 14.6524160200000004
  4.8494733999999999  1.0093743399999999 14.6688159500000008
  3.3865142300000000  3.8731541400000000 14.6266608399999996
  1.6101146399999999  6.6903255100000001 14.6538860700000004
  0.0103839500000000  9.5181704499999995 14.6809792300000002
  8.3167701399999991  0.8759598900000000 14.6355856600000003
  6.5915993200000003  3.8200226499999999 14.7024183900000001
  4.7886223699999997  6.6600481000000000 14.7403712500000008
  3.2188722799999998  9.4773236799999996 14.6112427700000005
 11.4749864499999994  0.8019927500000000 14.7264161900000001
  9.8866939100000000  3.7354608599999999 14.7389738099999992
  8.0752015400000001  6.7632237799999997 14.6637246900000005
  6.5555278499999998  9.4682467100000007 14.6120216000000003
 -0.0312479300000000  1.8697092200000001 15.8373928500000005
 -1.6650530500000000  4.9861169199999997 15.8775759300000008
 -3.3575004900000001  7.7568751599999999 15.7999884399999999
 -5.0480555200000001 10.3132580500000000 15.6733957400000001
  3.2619310499999998  1.9391089900000000 15.7345041299999995
  1.5826247700000000  4.7261088500000001 15.8333859799999992
  0.0337148500000000  7.8242421200000001 15.9490096999999995
 -1.5889229899999999 10.4500420399999996 15.8602260499999996
  6.6978515900000000  1.8826541900000000 15.8235163399999994
  4.9484564000000004  4.7062365300000000 15.9252820400000008
  3.3307656500000000  7.5133815000000004 15.9182302900000003
  1.7852170800000000 10.3247049499999992 15.8113874299999999
  9.9648189499999997  1.8424250300000000 15.8765316700000003
  8.0014599400000002  4.7634936799999998 15.8656197599999995
  6.5508644800000004  7.5654697200000003 15.8400647899999996
  4.8278197100000000 10.3817857799999995 15.8164078900000007
  1.7872467000000001  1.0354962200000000 10.9591591299999997
 -0.0270570200000000  3.8622303900000001 11.1906056899999999
 -1.6116421299999999  6.6182596900000004 11.1420700200000002
 -3.2493759000000000  9.4885782600000006 11.0570844600000004
  5.1113989300000000  0.9357142899999999 11.0076665100000000
  3.2371419700000001  3.7724315700000002 10.9708054599999993
  1.5402708599999999  6.5274118500000000 11.0252514900000005
 -0.1234225600000000  9.5113748299999994 11.0144752500000003
  8.3995535399999994  0.8486659300000000 10.9239861800000000
  6.6325878700000001  3.6225496300000000 11.1014202100000006
  4.9805731599999996  6.6268420600000004 10.8039796799999994
  3.3277369499999998  9.3575462599999994 10.9432739699999999
 11.6833612700000007  0.8927641900000000 11.0583680500000003
  9.8664519599999991  3.8062665000000000 10.8793827800000003
  8.4338862700000004  6.4833237400000003 10.9602640000000005
  6.5769280700000001  9.5290306299999994 10.9251494299999994
 13.0349320700000000  0.0059214500000000 13.3257374899999999
 11.4509118999999995  2.7829781900000001 13.4278698700000003
  9.7897118299999999  5.6819742900000003 13.4422017900000004
 -4.8736027899999996  8.5048347900000003 13.3520429099999998
  3.2507717700000001  0.0578648800000000 13.4151322700000009
  1.5462828399999999  2.8356061399999999 13.5124316199999992
 -0.0258597300000000  5.6503363300000000 13.5139307100000003
 -1.5620441500000000  8.5227364899999998 13.4148340299999997
  6.7194165899999998  0.0361387700000000 13.3382782300000002
  4.8732025300000004  2.8282913700000001 13.4207950700000005
  3.2926769999999999  5.7085037900000000 13.4385467500000004
  1.6541545400000000  8.4720477200000008 13.3501790699999994
  9.8374311500000005  0.0411940500000000 13.3310462399999992
  8.2298723700000007  2.9331262599999999 13.4919217800000002
  6.5848094699999997  5.7160311500000001 13.3029756399999997
  4.8418826900000003  8.5603010800000003 13.3731137899999997
