Sc Cl  C 
 1.0000000000000000
    13.7939866799999997    0.0000000000000000    0.0000000000000000
    -6.8969933399999999   11.9459428800000005    0.0000000000000000
     0.0000000000000000    0.0000000000000000   27.8102210700000008
 Sc  Cl  C  
  32  32  16
Cartesian
  0.0617979600000000  2.1175470999999999 15.1615750800000004
 -1.6087883900000000  4.9447399000000001 15.1547502499999993
 -3.4810874200000002  8.0464579999999994 15.1844162699999998
 -5.1974615399999999 11.0404225999999994 15.1913241600000006
  3.5654655399999999  1.9883907800000000 15.1132337099999994
  1.7494687799999999  5.0424607899999998 15.1607147399999995
 -0.0352189800000000  8.0656687300000005 15.2108202499999994
 -1.6969804799999999 11.0173435099999999 15.1056486200000002
  6.9505813700000001  2.0727162300000002 15.2078165199999997
  5.1292158600000004  5.0380207099999996 15.1957886099999993
  3.3547668599999998  8.0772879900000003 15.1628418400000005
  1.6667581000000000 10.9898860700000007 15.0962407899999995
 10.3039821699999994  2.0086210400000000 15.1104531899999994
  8.6692942800000008  5.0536006899999997 15.0752083700000004
  6.7962058000000001  7.9683107599999996 15.1301318499999997
  5.1382366499999996 10.9951282500000005 15.0078680400000000
  1.8029979199999999  0.9259975100000000 12.5937430100000007
  0.0827811800000000  3.9961139499999998 12.6657894599999992
 -1.7051081600000000  6.9800015899999996 12.6900733399999996
 -3.3998971700000000  9.8383747899999996 12.6852953599999996
  5.2103386199999999  0.9618494600000000 12.6737710299999993
  3.5009585099999998  3.9081060999999999 12.6858084099999999
  1.7246594099999999  6.9349435799999997 12.7130781600000002
 -0.0135689500000000  9.8775741400000001 12.6084584599999996
  8.5382638600000007  0.9325369100000001 12.6843270900000000
  6.8907267000000001  4.0632351699999996 12.6639371100000009
  5.1914711200000001  6.9594746299999999 12.6758147900000004
  3.4058315499999998  9.9106589700000001 12.6705902199999993
 12.1200217400000003  1.0423177800000001 12.6504181399999993
 10.4285564799999992  3.9872999600000001 12.7546309999999998
  8.5914878899999998  6.9163858999999999 12.5891739600000001
  6.9620978500000001  9.8944632000000006 12.6184096799999992
 -0.0393655700000000  1.9673717500000001 10.9456834799999996
 -1.6599005600000001  4.9870809400000002 11.0076304000000000
 -3.4148575100000000  7.8327459499999996 11.0184611599999993
 -5.0041185700000002 10.7313515200000005 11.0076746300000003
  3.4912369800000000  1.8550559700000000 11.0727786399999992
  1.6359540500000000  4.9204627600000004 10.9662362400000006
 -0.0115139300000000  7.9471702899999999 11.0349746599999996
 -1.6570208099999999 10.7268044800000002 10.9821404699999992
  6.9277442799999998  1.9906034200000000 11.0880197799999998
  5.1930586800000000  4.9947113800000000 10.9931020000000004
  3.4645726500000000  7.9430346700000003 11.0134708600000000
  1.6237544300000000 10.9755680699999996 10.9944415000000006
 10.3647741399999997  1.8599968800000000 11.0924860100000000
  8.7017249499999991  4.8762563700000001 10.9174615599999996
  6.8503822300000001  7.9663850299999996 11.0106787300000004
  5.0750745500000001 10.9267579799999996 11.0365267300000003
  1.5893485000000001  0.9305162800000000 16.9024417699999994
  0.0759984200000000  4.0891655800000004 16.8014020399999993
 -1.8036572799999999  6.8888630400000004 16.8653714900000011
 -3.5981052199999999  9.9875045999999994 16.8607484999999997
  5.1831119599999997  1.1342518500000001 16.8967389799999985
  3.4174333400000001  3.9043312900000000 16.6671393999999999
  1.7066391200000000  7.0896226400000000 16.7879055500000014
 -0.0408664100000000 10.1011521299999991 16.8697808500000015
  8.7299801000000006  0.9099681100000000 16.7878193899999992
  6.9455090400000001  3.8427087300000000 16.9496037900000012
  5.1484610899999996  6.9380541500000001 16.8928645499999988
  3.4585813000000001 10.0995103999999998 16.7848144800000014
 11.9669232099999991  0.9971817600000000 16.7132427800000016
 10.2997110299999992  4.1291103800000002 16.7167972999999996
  8.5602023700000007  6.9953609600000002 16.7775181499999988
  6.7762319499999997  9.9924328800000008 16.7078684399999986
  6.8536655900000003 11.9183499099999999 13.8473647599999996
 -1.6962220200000000  2.9889938300000001 13.8988201799999995
 10.2863269200000005  6.0644573499999996 13.8564469900000002
  8.5825006300000002  8.9459272300000006 13.8074800100000008
 -3.3687136299999998 11.8938198100000001 13.8703082099999992
  1.8365089600000000  3.0294118800000001 13.9843291199999999
 -0.0445380500000000  5.9335049700000004 13.8317223400000007
 -1.7695181400000000  8.9635017099999992 13.8627261900000001
  6.8343330099999999  0.0264517300000000 13.9113252299999992
  5.1628110899999999  3.0375676700000001 13.9723048300000006
  3.5050327600000002  5.9668265500000004 13.8317143599999994
  1.6696617499999999  8.8845937700000004 13.9394089000000001
 10.2292906699999993  0.1044617900000000 13.8060145799999994
  8.6383318700000000  2.9533789600000002 13.8810633100000000
  6.9631217699999999  5.9709331800000003 13.9413836100000008
  5.1579362800000004  8.9431116599999996 13.9154048800000005
