Sc  F  C 
 1.0000000000000000
    13.1286234000000004    0.0000000000000000    0.0000000000000000
    -6.5643117000000002   11.3697213799999997    0.0000000000000000
     0.0000000000000000    0.0000000000000000   26.8280942399999986
 Sc  F   C  
  32  32  16
Cartesian
 -0.0862299600000000  1.8265092500000000 12.1505245100000003
 -1.6798867399999999  4.7204535900000000 12.0589141099999999
 -3.2206632399999999  7.5127159900000002 12.0505822699999996
 -4.7901512100000003 10.5053894499999991 12.3114443999999992
  3.1829049899999999  1.8197891200000000 12.0927564699999994
  1.6613878099999999  4.6737826399999998 12.0867872300000005
  0.0780939800000000  7.5162595799999998 12.1306315500000004
 -1.6777727700000000 10.4016026999999998 12.1075683699999992
  6.5610159799999996  1.8409942200000000 12.1150499400000005
  4.7943951599999997  4.7062348299999996 12.0663910699999999
  3.2989286500000001  7.6508021399999997 12.1113605900000003
  1.6036306400000000 10.4453294000000003 12.0921332699999997
  9.9083849700000002  1.9497491899999999 12.2408125200000004
  8.1122320499999994  4.8065664899999998 12.1852232300000001
  6.5900689000000003  7.6763533300000004 12.1369448000000002
  4.9233290299999997 10.4702845100000008 12.2826059000000001
  1.6432454900000000  0.9973016800000000 14.7103098899999996
  0.0539301400000000  3.8612103499999999 14.6800701199999999
 -1.6298505100000000  6.5376386699999998 14.5784038200000001
 -3.2031845500000000  9.3298814399999994 14.7153873799999992
  5.0025900700000001  0.9565475200000000 14.6524139899999994
  3.2694597500000002  3.8811544699999998 14.6508361600000008
  1.7047988100000000  6.6823827199999997 14.5787719300000003
 -0.0413170600000000  9.4497602799999996 14.7063670799999997
  8.1688483499999993  0.8773490800000000 14.7053910000000005
  6.5262544900000004  3.7017358499999999 14.7252186100000007
  4.8896365700000004  6.6467137699999999 14.6397541199999992
  3.2611384100000000  9.5302011699999998 14.7191208000000007
 11.4973431500000007  0.9476475800000000 14.7726453299999996
  9.8237835100000002  3.7105393900000001 14.7769276600000001
  8.2075616399999998  6.5830921599999996 14.6872054199999997
  6.6115815299999996  9.5569968200000002 14.7886812100000000
 -0.0670989800000000  1.9653102800000000 15.8966016499999991
 -1.5648891300000001  4.7933173199999999 15.7232913199999995
 -3.1481702100000000  7.4589371499999997 15.7286670700000002
 -4.8747197199999999 10.4093715800000002 15.8223882600000003
  3.2491401899999999  2.0326556299999998 15.8041041599999996
  1.6529589499999999  4.8261738200000002 15.9247550899999997
  0.0760890000000000  7.5574285000000003 15.8701664499999993
 -1.6214793000000001 10.4204710699999996 15.9046339799999998
  6.5225358699999996  1.7950881900000000 15.8974712799999995
  4.9462589299999999  4.8566061100000004 15.6820214000000000
  3.2017315599999998  7.6262643800000003 15.7002746999999996
  1.5935155200000000 10.4511720599999993 15.8629274799999997
  9.9396624700000000  1.7776623600000001 15.9991022399999991
  8.2331564200000003  4.8670641200000002 15.9840283900000006
  6.4438774800000003  7.6162805300000000 15.7678191699999992
  4.8375173800000004 10.4081582400000006 15.8774868599999994
  1.7770947800000001  0.8967419300000000 10.9079991399999994
  0.0383201700000000  3.6596161800000000 10.8120850799999992
 -1.5585184999999999  6.5770677700000002 11.0363366500000009
 -3.3164803300000001  9.4434833600000001 10.9399119900000006
  4.8789537799999998  0.9847513400000000 10.8566988000000002
  3.2031099599999999  3.7842456499999999 10.8307262299999998
  1.5479936999999999  6.6645682300000004 10.8033228599999997
 -0.0880618200000000  9.3829784400000005 11.0070049900000004
  8.2995797600000003  0.9245315900000000 11.0114383500000006
  6.4089816800000001  3.8198681099999998 10.9974673599999999
  4.8557593499999996  6.6251407400000000 11.1027908100000001
  3.3772234800000001  9.6021351300000006 11.1036296799999992
 11.4607438399999992  0.8209702100000000 11.0584943199999994
  9.9517997200000003  3.8337886999999999 10.9702313500000006
  8.4020256599999996  6.6754138899999997 10.8711689400000004
  6.4530802500000002  9.5751475100000008 11.2159634100000005
  0.0164723400000000  0.0278084900000000 13.4728033200000006
 11.4955815200000000  2.8238770400000002 13.4735691099999997
  9.7496754699999997  5.6898856899999997 13.4513747699999993
  8.2037119799999996  8.4389066899999996 13.4966457299999991
  3.3193153500000001  0.1214739200000000 13.4592478900000003
  1.5573639300000000  2.8851271000000001 13.3443625099999998
  0.0575538900000000  5.6153939800000003 13.4087232299999997
 -1.6286336800000001  8.5378983700000006 13.4499357899999996
 -0.0485231600000000 11.3131122499999996 13.4217513499999992
  4.9492319499999997  2.7520610900000002 13.4252513800000006
  3.2433627500000002  5.6596914800000002 13.2741614400000003
  1.6660276599999999  8.6306265799999995 13.4383078900000008
  9.7462588300000004  0.1007404100000000 13.4491778100000001
  8.2368047600000001  2.9662507800000002 13.4987412800000008
  6.4808288000000003  5.6781952999999996 13.3558555999999999
  4.9698084600000003  8.5376038699999999 13.4292483499999999
