Ca Si  O 
 1.0000000000000000
    11.6281733299999992    0.0000000000000000    0.0000000000000000
     0.0000000000000000   11.6281733299999992    0.0000000000000000
     0.0000000000000000    0.0000000000000000   11.6281733299999992
 Ca  Si  O  
  27  27  81
Direct
  0.3072318702700315  0.7413280035790454  0.5220081450230671
  0.4734155687030854  0.8148734406593164  0.9605196235925048
  0.7293677879842888  0.4743575945646831  0.2628000325825897
  0.8324821754269466  0.1997755859045146  0.1068046790114368
  0.0160048207674937  0.8919623551913464  0.4546000037995651
  0.8267315077939247  0.2761025888491809  0.5620910898479013
  0.5575590125813854  0.3430791446587424  0.0498117531930529
  0.6390715797835463  0.1512260060196403  0.8825600796234434
  0.0416346571607219  0.5776192347143144  0.0692524248776398
  0.8838674921953543  0.9503889017106697  0.9730826655986905
  0.5207873935260647  0.8744468087491092  0.3371366652994328
  0.0837687091821154  0.8577804515750198  0.1388899050750562
  0.4085649048370352  0.0674619682505197  0.0714411039829246
  0.4403974334290389  0.8888650570192352  0.6399813280045079
  0.7066842656016722  0.7659958900870634  0.4708336223261302
  0.1256302050667833  0.3603553345037728  0.4360359401350617
  0.3515221345604074  0.4296234617617281  0.6361544457645267
  0.6438756567795332  0.7088373561421620  0.0874437782395870
  0.6483495400390631  0.5835365966289738  0.6077212473061752
  0.2278637181270844  0.5125996758770366  0.3553784203868589
  0.6827673637713140  0.8484870916522536  0.7941990515547296
  0.1937727041088061  0.0412096763954928  0.7842970844329512
  0.3248462869275101  0.1237745670927319  0.4976274007776594
  0.3717572930261783  0.5530497204929435  0.0038651066443985
  0.8306964486914817  0.4352413217768917  0.7593719950165209
  0.1249765366199611  0.7457321862951626  0.8413777153423290
  0.1313758727743354  0.3747864377594379  0.8429028654666606
  0.9033515129069719  0.7029731324102994  0.9461380122031602
  0.1395969198199078  0.5913824660885065  0.6232452883465920
  0.6708400235035025  0.0155543321265577  0.0815263372067399
  0.6345822564376928  0.2122823533797462  0.3126086872666182
  0.2240504106761539  0.3148583492950049  0.0522225480104707
  0.8178428821201620  0.7360185307798470  0.2302842419016470
  0.9580480720268040  0.2328275373239556  0.8540424190598130
  0.5545974502600574  0.2835879287671403  0.6250841085458777
  0.2728330452225896  0.9434165606817628  0.3092280230053984
  0.0172940868950738  0.3842684851000583  0.2061190800980261
  0.9450725232696545  0.7822978830674173  0.6917138747191345
  0.4472842717765027  0.0207850143905621  0.8466289236161568
  0.6277300684165155  0.0536289408751013  0.5297218449701249
  0.7960293416094101  0.0082279337678225  0.3082580271444922
  0.0175447324536914  0.0942600362837901  0.5448037770176583
  0.8097705127689218  0.9896095339679634  0.6626501731033280
  0.0960233373129467  0.1319836432125148  0.0681045592910852
  0.4212946669242675  0.3077068606097223  0.2472159821167716
  0.0005581125956608  0.6479632807468653  0.3625261801975565
  0.9023079044522637  0.6002911757422179  0.5594220162867146
  0.0240481262244824  0.1417604118221379  0.2793874134657400
  0.3333632196554126  0.7334770610957174  0.1396640748216298
  0.4956151449111569  0.5103250305609265  0.3673337590333288
  0.3948722425863599  0.2578328783821113  0.8002802560563483
  0.3505293432016636  0.6525008842467952  0.7541058549047275
  0.7615414862413306  0.4699034005541436  0.9910628533776767
  0.5772859751480847  0.5830619167421717  0.8406736950488853
  0.3906405521390693  0.1481584287667305  0.8926907911855148
  0.2314139447042453  0.5771814282028767  0.7511309895481239
  0.4265342981432837  0.5918041230298724  0.6387507589723898
  0.8228806364034480  0.0348455968535172  0.1106587228692437
  0.9935406028214065  0.2243208796406891  0.5253705949015125
  0.9937856739877132  0.8103900743970077  0.9861416075056048
  0.9076852726962233  0.7518463951207718  0.8212798346720207
  0.9040464672880827  0.0296026099913665  0.5530109414012322
  0.1374204696345028  0.0259734931212966  0.9934102788266574
  0.8449572294086195  0.5688633564597889  0.9224048976229012
  0.5834413778900904  0.9839581639603924  0.8515917228763911
  0.6140227125424179  0.6823536917470425  0.9337195827644238
  0.0371504807969697  0.7117757454343004  0.2530686846925423
  0.0236819835914847  0.8917600998642838  0.7532731153397764
  0.4908765081161721  0.3332385844303544  0.5207732563098972
  0.4535287220387522  0.2297293060732180  0.1401995389760844
  0.1203699988190665  0.7434375825562278  0.6380171200974006
  0.1364632333013220  0.4242419819519495  0.0233116631741849
  0.8482422372009827  0.6963821100867613  0.1032589286317424
  0.0128020864305434  0.5372295564156335  0.6039174331777871
  0.1453855865425082  0.9514731390747166  0.2907468012432869
  0.3510296204021238  0.3812843818350616  0.0850810073021160
  0.7143804675295462  0.2930252493922879  0.2548084730002903
  0.5884535787187136  0.7218655537533170  0.7153832303598799
  0.6788278765707048  0.9496726602371691  0.6030065566626707
  0.4952534225769062  0.7807035139886412  0.4999020684532573
  0.7144396479339375  0.8716148299794910  0.0273045121524689
  0.3225859207243172  0.2167121454492457  0.6788645960095954
  0.8271956107830052  0.8557969439899983  0.6426973857294576
  0.3467086038009721  0.3568036588598048  0.3594961221652172
  0.6893041153179991  0.7482610091089863  0.3012364307438475
  0.6772550267789997  0.0776462505654790  0.2451911670979538
  0.8150766239051239  0.4917037300475122  0.5433703721717744
  0.2970116055192996  0.8452704944328518  0.0719595121480701
  0.6565870875266702  0.5435351048383453  0.4088066152003257
  0.7607096616954196  0.9266568182467917  0.4373787228367708
  0.4623338634048380  0.6746485554838217  0.1079468773278081
  0.9415152422740848  0.7137797480698546  0.4973569318131243
  0.5367821353244311  0.9987849131932403  0.4586482570087387
  0.5014651720882115  0.2204298979089951  0.3367244371820867
  0.7425349360525917  0.3426392655947794  0.9511132785978176
  0.5256127808339095  0.2573029327212480  0.7836513037254496
  0.3317829009347937  0.8022415408904127  0.2886005647457958
  0.9565703257366220  0.1440005409688884  0.9589278189749861
  0.8061852376945950  0.6749105312829045  0.6426864467800293
  0.0587064271082722  0.1869334579311779  0.7631785516220888
  0.8627294662110099  0.2243485030679363  0.7441819213061215
  0.1392828137349411  0.1348426950219876  0.3579892612419461
  0.6538860459177556  0.3889916508494288  0.6304373405827105
  0.5145188018968067  0.4313644334023701  0.2651515171385909
  0.8625554904761642  0.6238071401366014  0.3109964443572670
  0.3936227496877190  0.6132356757705814  0.3819117469243985
  0.1219966859575527  0.3537959843947390  0.2529055137501980
  0.9130282279684595  0.0772342795822429  0.3269899933629559
  0.0862238067447177  0.5235626325153858  0.2706504444580721
  0.6006956709166976  0.1369930929641552  0.0543384426829833
  0.1214225906279985  0.6282722163378692  0.4457038472783068
  0.7074880676894761  0.1788783870836917  0.4397186922565421
  0.1908582222690346  0.4701797070649617  0.5672971620556331
  0.3059480091186429  0.9368164354667390  0.4754434082726217
  0.8590511601876855  0.8666189386772755  0.2741683727550697
  0.3097497145753331  0.7658740205586532  0.7261950893193300
  0.0062378653930849  0.1250653975244795  0.1570068065024277
  0.5529549248643683  0.9562764524081961  0.1225564454154899
  0.4492399804982956  0.5901412771596518  0.8665005245497146
  0.3458173167771314  0.3733385370856009  0.8495755601193813
  0.6433571239172439  0.1532565614069669  0.6214116460886984
  0.8947944706978324  0.4789106699702077  0.1383393147270879
  0.2308706349495050  0.6259781543865239  0.1246237236816284
  0.6814405715433208  0.5129315809742923  0.0723907432501266
  0.2229279686872367  0.1995028913109606  0.1318204946296583
  0.8340215289859290  0.9841012603825713  0.7956657926770000
  0.3408873188855365  0.0510016399970536  0.2493199892815840
  0.1760231819661051  0.2445887336975222  0.9502690376563213
  0.0777345533427820  0.5756710542600761  0.8246742078792183
  0.3554737827424525  0.9383249492721486  0.8954257753569280
  0.6285898216826804  0.4692113881656425  0.8510399552153907
  0.9340325940944674  0.3626103086304786  0.8988655538040559
  0.1174691167077744  0.0287932636105623  0.6014623510948303
  0.3965985988617871  0.0475665028636101  0.7082980590555061
  0.9552382153904480  0.2730862010637057  0.2968770280619820
