Sc  F  C 
 1.0000000000000000
    13.1286234000000004    0.0000000000000000    0.0000000000000000
    -6.5643117000000002   11.3697213799999997    0.0000000000000000
     0.0000000000000000    0.0000000000000000   26.8280942399999986
 Sc  F   C  
  32  32  16
Cartesian
 -0.0684320400000000  1.8912249699999999 12.2161306199999995
 -1.7016373000000000  4.7640945600000002 12.1644668300000003
 -3.2692843300000001  7.6537968500000000 12.1612291100000007
 -4.9185854200000003 10.3856461000000007 12.1496332700000007
  3.2353848400000000  1.9272598100000000 12.3135363400000006
  1.5529409199999999  4.7035189600000002 12.1969715700000005
 -0.0788214300000000  7.5899547199999997 12.1299329300000007
 -1.5328557199999999 10.3988316199999993 12.0404957100000001
  6.5664581300000000  1.9967788200000001 12.1499314799999993
  4.8906220700000000  4.7683721800000001 12.0308384299999993
  3.3408057100000002  7.5448539400000003 12.1071871499999997
  1.5828577600000000 10.5167982400000000 12.1509000900000004
  9.9422460800000003  1.9643720600000001 12.3049554899999993
  8.2662698100000007  4.7053250999999996 12.0244391900000007
  6.6579657200000000  7.6265133199999999 12.0108597499999998
  4.8295578800000003 10.4337893899999994 12.1564828899999995
  1.7162306700000001  0.8511857000000000 14.7161563599999994
  0.0701624200000000  3.7205559500000001 14.7719840300000005
 -1.5628964599999999  6.5780447899999999 14.6410801500000005
 -3.2867670699999998  9.5117212700000007 14.7725295200000009
  4.9904809200000004  0.9415610599999999 14.7381786800000008
  3.4016482300000002  3.8077021800000002 14.6638856499999992
  1.5638875699999999  6.6641773899999999 14.6795719600000005
 -0.0421593000000000  9.4449096899999994 14.6948790000000002
  8.1599497000000003  0.9827438500000000 14.7164094500000004
  6.5945007400000000  3.7919745800000002 14.7155972199999994
  4.9192410600000001  6.5395616800000003 14.6475084700000000
  3.2235524799999999  9.5764214499999998 14.6492203900000000
 11.5458033199999992  0.9420519900000000 14.7843979799999996
  9.7295617100000005  3.7975172499999998 14.6622617099999992
  8.2118703600000007  6.6555438799999997 14.5995162999999994
  6.5029614400000000  9.3430575499999993 14.6302763900000006
  0.0229246500000000  1.9199048100000000 15.8789102100000008
 -1.6448475600000001  4.5441826299999999 15.6983641299999999
 -3.3465429100000001  7.6000159399999996 15.7849009000000002
 -4.7554587799999997 10.4109013299999997 15.8852786300000002
  3.3155277600000002  1.8003410399999999 15.7555139299999993
  1.6996029699999999  4.7573398600000001 15.8327252600000001
 -0.0755520500000000  7.4171812099999999 15.8931506700000007
 -1.7802211800000001 10.4852611299999996 16.0068008100000014
  6.5568752200000002  1.8173351099999999 15.8771880700000008
  5.0748960399999996  4.8761696199999998 15.8551454700000001
  3.3480497100000002  7.6408829100000002 15.8454614399999993
  1.6569042100000000 10.3175603999999996 15.8856704400000002
  9.8330836399999999  1.8449327099999999 15.8507534600000000
  8.1329940799999996  4.7101983499999998 15.7906610799999996
  6.6210105199999996  7.6883627600000004 15.7354015000000000
  5.0221889400000004 10.3732017699999997 15.7845154700000005
  1.5923395199999999  0.8516582900000000 11.0145201000000004
 -0.0812790900000000  3.6958858600000002 11.0227409999999999
 -1.7138738099999999  6.6519042600000002 10.9449887900000000
 -3.1469633600000000  9.5647468399999998 11.0369622799999991
  4.8871551999999996  0.9447376300000000 11.1020672900000008
  3.1565612399999998  3.8933357300000000 11.0206735600000005
  1.7324819400000000  6.4994302099999999 11.0786204099999992
 -0.0358717000000000  9.5588994799999991 10.9149502100000007
  8.1205080200000008  0.9551111400000000 10.9064788499999992
  6.5733389200000003  3.8087069100000002 10.8853719200000008
  5.0870719299999996  6.6910405800000001 10.9436896299999997
  3.0940694299999998  9.4374800200000006 11.0583437799999995
 11.4642657600000000  1.1442260900000001 10.9481883000000000
  9.9641336999999996  3.7519978200000002 11.0198875399999991
  8.2367540100000003  6.5654170799999996 10.7892905100000007
  6.5886002699999997  9.6559061800000006 10.7274313299999999
 13.0869992100000001  0.0335336100000000 13.4481218600000005
 11.4055508099999994  2.7809412600000001 13.5661271499999998
  9.7200982600000003  5.6713576400000001 13.4433006899999992
  8.1850708900000004  8.4482032799999995 13.2685449200000001
 -3.2870264699999998 11.3053466399999998 13.4254124800000003
  1.7591125400000001  2.7826599700000001 13.5599764700000005
  0.0343871600000000  5.7112950800000002 13.3571778600000002
 -1.6786456599999999  8.5126436800000000 13.5059154400000008
  0.0971518100000000 11.3332546199999999 13.4413828599999992
  4.9677717799999996  2.8068426199999998 13.4164067199999995
  3.3345026899999999  5.6605167400000003 13.3277100399999995
  1.5789044500000000  8.5013408500000001 13.4767054799999997
  9.7387428200000006  0.1036245300000000 13.3821211099999999
  8.0986782999999996  2.8363810500000000 13.4591919200000003
  6.4869625700000002  5.5884260000000001 13.4259726700000002
  4.9548532099999996  8.5562538999999997 13.3405000900000008
