Sc  F  C 
 1.0000000000000000
    13.1286234000000004    0.0000000000000000    0.0000000000000000
    -6.5643117000000002   11.3697213799999997    0.0000000000000000
     0.0000000000000000    0.0000000000000000   26.8280942399999986
 Sc  F   C  
  32  32  16
Cartesian
  0.0373173100000000  1.9197232399999999 12.1328985899999999
 -1.5990862800000001  4.7275415000000001 12.0511948400000009
 -3.3174521600000002  7.5222138000000003 12.1094835500000002
 -4.8576503000000004 10.4847572400000004 12.2141084400000004
  3.2308106300000001  1.8102920800000000 12.1167487699999992
  1.6334671199999999  4.7298877900000003 12.0904625299999999
 -0.0320760800000000  7.6456190499999996 12.1257942399999994
 -1.6923860200000000 10.4558093599999999 12.1552679999999995
  6.5804475399999998  1.8076394499999999 12.1322629099999997
  5.0070858500000002  4.7227726499999996 12.0850494699999995
  3.2083742800000001  7.5448802099999996 12.1763853500000003
  1.5971151400000001 10.3647968400000003 12.1761170900000000
  9.9092566699999995  1.8709520300000000 12.1287772300000007
  8.2430925899999998  4.6234729799999998 12.0650302200000006
  6.5524062299999999  7.6660700899999998 12.0877879999999998
  4.9138845800000004 10.4606072000000001 12.1774326599999991
  1.6765676500000000  0.8803251100000000 14.8291586500000001
  0.0278971000000000  3.7949025600000001 14.6847979500000001
 -1.5885056300000000  6.6171276600000004 14.7010239499999997
 -3.2742445600000001  9.3542690099999994 14.5693498899999998
  4.9238234299999997  1.0003232399999999 14.7966023799999995
  3.2481987100000000  3.8580474300000001 14.6730110400000004
  1.6087562799999999  6.6534593600000003 14.6350716500000004
  0.0130361600000000  9.5078311600000003 14.7934265899999993
  8.2155243400000000  0.9828731400000000 14.6572113000000002
  6.4902741600000002  3.7508597699999999 14.6905910500000001
  4.9524173600000001  6.6046455100000001 14.6877120500000000
  3.3159339299999999  9.5101257399999994 14.7296453799999991
 11.4634359900000007  1.0731962799999999 14.6391738900000004
  9.8844111800000007  3.8112743899999999 14.7291912899999993
  8.1739327199999998  6.5215223900000003 14.7366364700000005
  6.5480278700000003  9.4902688600000005 14.6876635699999998
  0.0307020500000000  1.9824134300000000 15.7487828600000004
 -1.5354014700000000  4.6543153400000001 15.8551401700000003
 -3.2667077500000001  7.4687650400000001 15.7707419899999994
 -4.8967888600000000 10.3445029999999996 15.8564469700000004
  3.1850192700000002  1.8176156500000000 15.9335288899999998
  1.6291562100000001  4.8127018599999998 15.9531167800000002
 -0.1312854000000000  7.5659322800000002 15.8592787499999996
 -1.6903245800000000 10.4239528999999997 15.7890246100000002
  6.5163865400000001  1.7255530500000000 15.8831791100000004
  4.9394744700000004  4.9248534199999998 15.8529489100000003
  3.2999469000000001  7.7808179800000001 15.9745780199999992
  1.5789752699999999 10.5256242699999998 15.7934278599999995
  9.7271646599999997  1.8807308500000000 15.7932261199999999
  8.1398819600000003  4.6459107199999998 15.9132531299999993
  6.6778865500000002  7.5272584100000000 15.8531517100000006
  4.9271842899999996 10.5627094600000007 15.8294064900000002
  1.6418148600000000  0.9024322000000000 11.0015865099999992
  0.0778922600000000  3.8811164200000001 10.9374622800000001
 -1.5826059699999999  6.7383824800000003 10.9568832100000009
 -3.2807088000000002  9.5242138999999995 10.9230434200000008
  4.9204649199999997  1.0698268500000001 11.0095112400000001
  3.3129268600000001  3.9796005499999998 10.9055654900000008
  1.6570434400000000  6.7511194799999998 10.9887643900000000
 -0.0261736500000000  9.4728446099999992 11.1090252300000003
  8.2108823999999991  0.8311006900000000 10.9755268400000006
  6.6302122399999996  3.6617483700000002 10.9136325799999998
  4.9576630200000000  6.6484126999999997 10.9221507300000003
  3.3539766300000000  9.5037388400000005 10.9344852199999991
 11.5956613799999992  1.0310195799999999 10.9449805300000005
  9.8528650199999994  3.6585181000000002 10.9212523000000008
  8.1134221499999999  6.5342568700000001 11.0455533300000006
  6.5411964200000003  9.5015869100000003 10.9984395100000008
 12.9941237100000002  0.0755010500000000 13.4604960899999995
 -1.6390389900000000  2.9483640100000001 13.3560060600000003
  9.8143455799999995  5.6179259500000001 13.4251876699999997
 -4.8778554500000002  8.5517450200000003 13.4378380800000006
 -3.4144803600000002 11.3623748300000003 13.5000273400000008
  1.7391852400000001  2.8932412599999999 13.3844948099999996
 -0.0851742400000000  5.6681264400000000 13.3602488299999997
 -1.6427410300000000  8.5060740399999997 13.4737235900000005
 -0.0691209800000000 11.3116481199999992 13.4318261900000007
  4.9093765999999999  2.8215391400000001 13.4778510699999998
  3.2846520799999999  5.6293854500000000 13.4240484999999996
  1.5547608300000000  8.4663779300000002 13.4432145100000007
  9.8101988500000008  0.0588133300000000 13.3772166200000004
  8.2279920700000009  2.7961202400000000 13.3259504199999999
  6.5409740400000000  5.6127958700000002 13.4235030299999991
  4.9989324300000000  8.5284207399999996 13.4268230200000005
