Ca Si  O 
 1.0000000000000000
    11.1219476799999999    0.0000000000000000    0.0000000000000000
     0.0000000000000000   11.1219476799999999    0.0000000000000000
     0.0000000000000000    0.0000000000000000   11.1219476799999999
 Ca  Si  O  
  27  27  81
Direct
  0.0760495566366484  0.2261563516004599  0.7674548069803544
  0.9975767850402258  0.4614521087191447  0.5017860271034830
  0.9845890175955224  0.1163549584329640  0.2432228165274016
  0.3303614569781900  0.1065070708910222  0.5866030013548850
  0.5514404523794703  0.6758666041485999  0.9966169055022923
  0.9896147461466928  0.8081764569135250  0.9011672054547912
  0.6623460766001373  0.1101035165092595  0.8423567588658176
  0.4086830275396512  0.9074733275494064  0.7837465793581219
  0.7330994925162245  0.2331662964629231  0.4106946545175619
  0.2016273780924673  0.3574078762434890  0.2853583312307040
  0.0919488168280971  0.9019155905613827  0.4295550219671596
  0.5125377041874378  0.0057537431249632  0.3567771081260832
  0.7522784831154681  0.5726905838132840  0.7377801717909178
  0.3846903404961891  0.5663606718207471  0.4667960360338613
  0.6280693913496272  0.7846522849314465  0.5466552068872886
  0.8713807625104742  0.6720130695669663  0.3003865164738844
  0.3491510580456174  0.7916999057488823  0.2141224512575661
  0.0712881163274812  0.5774476471912336  0.0970428041071310
  0.2014305384684205  0.0253603503734519  0.0007993968552817
  0.8843471038518677  0.9810095815879615  0.6766586650585646
  0.7031290233510611  0.1603848023136897  0.1371095156959055
  0.7654357226755090  0.8868638500914078  0.1102244341793199
  0.6545934093083235  0.4545270536643992  0.1867801971174171
  0.4129987626411851  0.2327030160961879  0.1256360621541784
  0.1481867904273400  0.9644536342577004  0.7057707629856428
  0.5287743513283637  0.3425186918340188  0.6536998895502806
  0.2078021562856336  0.6672322288788181  0.6662354888905573
  0.4453766105110827  0.4469931870781826  0.9095348144993251
  0.7059627428493711  0.3667703901660505  0.9350422847880183
  0.9347757136724815  0.7254331635194313  0.5977047933748237
  0.2126932582369422  0.3969681720351340  0.9506255796376845
  0.2622933153377323  0.0882950817837330  0.3177183476914180
  0.4638522827505334  0.3107749010738018  0.3711283849520860
  0.3871076410242562  0.2036672492241035  0.8544907999423352
  0.8175522436911876  0.3028984452118911  0.6741032691137421
  0.4875507955994988  0.9816994760399735  0.0186091785319386
  0.9224010717518498  0.0320983491625273  0.9470149143877288
  0.9309924293763625  0.3843432196401053  0.2575938003333603
  0.1398920481165219  0.6172357475071308  0.3619189467361349
  0.8159202516586556  0.9568381659569181  0.3854623374743298
  0.0352582597295584  0.1966390045093253  0.4897645859092910
  0.6967749896841808  0.5211702290618939  0.4823474398865361
  0.7277272985697052  0.8102806926709081  0.8191274543021406
  0.9508799622405704  0.2826048773500434  0.0348774649153897
  0.6180873654316633  0.7426458087779819  0.2671342093563958
  0.8226317640796525  0.5816746118697800  0.0133085314064344
  0.5904016399760658  0.0413379772345773  0.5877457697229519
  0.4805283700093795  0.6237092188874602  0.6961431956673257
  0.3533536609839545  0.8278447368132197  0.4835246788357487
  0.3734378608405753  0.5249198816587132  0.1548100781930670
  0.0438870352607161  0.5183196635933105  0.7989026010235646
  0.0720615438104632  0.8412538621113168  0.1680712195186302
  0.2521466725691340  0.6888637593375192  0.9008717706897178
  0.2657145830054831  0.3925556849949144  0.5850651538040682
  0.5672547814035391  0.2325482967925632  0.2885076150618971
  0.2142776695745074  0.1245642310016693  0.1713935377908557
  0.9130457409236796  0.8674699115290210  0.2757893103125981
  0.1332058289272585  0.3220977137342548  0.5257938382964952
  0.1143182917760318  0.7183815263191383  0.2559146852595156
  0.7072300514544408  0.8494367310312684  0.3283610960126365
  0.9184228647621188  0.6749622868213313  0.0726973416224522
  0.7163100582037624  0.3334095768736793  0.7949174555009235
  0.9650818191944597  0.2649468793401121  0.3759669637287846
  0.5535462193434809  0.0296368261642461  0.1493603888271483
  0.6185119250623915  0.7482986693927695  0.7578809946352849
  0.6613428503378824  0.6322540352033017  0.3906603362119034
  0.0029289285417678  0.6246042806416079  0.7106086386480825
  0.2058571453376950  0.5031941302928338  0.4917357901111795
  0.2511016164032162  0.7233132866167197  0.4316608878347106
  0.7139665999579671  0.7241664042785715  0.9388568019230243
  0.0125044860847610  0.0426541244078213  0.8316536793850481
  0.0287656622027914  0.6605764270237962  0.4432575302314316
  0.0369717662617165  0.8363784129939370  0.6492985426451853
  0.0461044157690193  0.4858600917281063  0.3168185304752306
  0.8050844697014434  0.9129334925984834  0.8966855398837841
  0.4679389977133933  0.1144745971327928  0.7119235396367194
  0.4864680598821159  0.1206258443754880  0.9625319609487679
  0.0589882140139685  0.1071983185232894  0.6039654027575860
  0.5505278244574515  0.8476369860067531  0.1463866363018172
  0.5231998088306058  0.1460656664408981  0.5055172386856616
  0.6576745512976554  0.9450631006744674  0.6890715484825946
  0.7822282769451043  0.0586104977972707  0.2854964554193982
  0.8314619252012161  0.7730070476289095  0.7135616600922545
  0.0687575784388153  0.3725016956742239  0.9532996805106351
  0.4667469457112209  0.4593350541638225  0.0507655004541435
  0.8275232094959828  0.5962959726852446  0.5564343627626200
  0.7254705742330915  0.0050453869784793  0.4951693730679373
  0.4949532247754648  0.7776613754039885  0.3779370763952380
  0.4665600818578927  0.9465607070721268  0.5557947301906386
  0.4079517221753375  0.7413227788174597  0.6049439813584880
  0.8407025890630696  0.2921286274204088  0.1789818966312562
  0.9180645471261559  0.2686929048743736  0.5656080896075569
  0.4823518626730313  0.6117520811786448  0.1846574807839772
  0.3703546211970671  0.1861558945941742  0.3083203894374011
  0.3093617699881142  0.9517043960775041  0.3538875557810572
  0.3882425096968268  0.4190680098577841  0.2597945551565479
  0.9384356985214661  0.0483592555436297  0.4281588708210863
  0.9583883764502658  0.9297412959957387  0.0558740436369325
  0.8564297193313176  0.3092203163466059  0.9429631807079315
  0.5568712511692017  0.4028343163362192  0.4491125182131768
  0.8017756373764923  0.1590927462446038  0.6990688262255879
  0.3608272152922050  0.9335434861531374  0.0406252711305687
  0.9215674983286740  0.3909005189637792  0.7355904150414058
  0.7235311504360538  0.3846706416083410  0.5525275353570086
  0.1281441237637615  0.8159303137451910  0.0417811720905344
  0.1269165069476392  0.4529877405429406  0.6817016315976772
  0.8612135073449653  0.8041421374497960  0.4902696665086272
  0.2304540404023911  0.4303913350184003  0.0901944397566164
  0.2989556753606307  0.4624893155404594  0.8698523854231976
  0.2680104506659575  0.2551667838811484  0.9497724224144164
  0.3462093178988951  0.3339486802908607  0.4840196973485493
  0.1447131200674736  0.9491332690750438  0.2437884467732004
  0.8629349072787581  0.4969722695188942  0.1425208637557626
  0.9000703337241377  0.5551188656553723  0.8910670581395866
  0.2706963902926758  0.0920982519853033  0.8268294649988858
  0.6342167022314207  0.3104634601194239  0.0482046126654680
  0.3141600527651466  0.2942065440466089  0.7189434917392095
  0.8197110499264639  0.4348989798520613  0.3629027879045013
  0.0293424334828376  0.3232844204496383  0.1658578086387833
  0.5756500573647726  0.5996453851327593  0.5977822447371915
  0.4929539301698999  0.3173603968976772  0.8641186001335334
  0.3874889366499878  0.6935996384762709  0.8292427455476036
  0.7897162468939074  0.1035501310684101  0.9697108258649890
  0.3698580373109613  0.5218140623369665  0.6501247864169057
  0.1709325349029155  0.1420621203641555  0.4163946192920771
  0.2646564643792678  0.5837835770146330  0.2577913970190516
  0.1905426190604055  0.8094077322615134  0.8287083391494610
  0.0121303789481592  0.1368068214109779  0.0338673396816411
  0.5406353350153504  0.5197685959623216  0.8087588036558718
  0.1360676037634444  0.5660845780925307  0.9148803899066714
  0.6939556597518538  0.5056710085152999  0.9876042421735254
  0.5688602124407763  0.8918934421745095  0.9203552160569055
  0.3106012192641424  0.6750380118673602  0.0517552893217710
  0.6921539312617949  0.6705516528738067  0.1663749240007214
  0.2785495399848887  0.9087471080425006  0.5662306927881537
