Ca Si  O 
 1.0000000000000000
    12.0937876200000005    0.0000000000000000    0.0000000000000000
     0.0000000000000000   12.0937876200000005    0.0000000000000000
     0.0000000000000000    0.0000000000000000   12.0937876200000005
 Ca  Si  O  
  27  27  81
Direct
  0.3390463731328531  0.2105621944103563  0.3817512771900323
  0.4405924725507954  0.3849924073662541  0.5685400939759516
  0.0460051993206740  0.7847883978303234  0.0986427013177531
  0.7412798795287593  0.8453066815142236  0.0961593180350558
  0.0481032310372257  0.5000065942947326  0.0609167692660374
  0.7029495173158994  0.1013163144996588  0.9797059665911348
  0.1941370300002010  0.0271766571670621  0.2890840686021572
  0.5373913321623223  0.1214440360744486  0.8877299839667598
  0.6664119201722843  0.9216129107119213  0.5725831094096888
  0.1193494615047655  0.2318231895658178  0.1479975534744838
  0.7516359113969623  0.5948637280600765  0.3400386850848303
  0.2430405760672685  0.3846580232901427  0.9082067434222066
  0.7693954055065504  0.4456245420655072  0.9803277271376459
  0.3551865747085113  0.6437950032398535  0.7464645827805598
  0.2561623303915767  0.7429230396887027  0.0754869870949495
  0.6279654545479773  0.6115276224769689  0.6025807297912513
  0.5099864272298177  0.8096016010573864  0.3755071448823739
  0.9852574813117150  0.1273527424487714  0.3674547974243325
  0.0941314893042582  0.6655926656664738  0.6511933322672322
  0.2563660589568051  0.7623755435189294  0.2984173299051203
  0.1901067409351447  0.1374837339834152  0.8180475257924200
  0.4688106140233344  0.8446517741974371  0.7248727814189944
  0.8606062308211760  0.4842130227519242  0.6525240311769259
  0.8541030919807074  0.1610791954687890  0.5379907605819193
  0.1930886454577908  0.9396776102803763  0.5880446112877911
  0.1120810553807294  0.4046621152753466  0.4094354916412861
  0.4950250333567541  0.3765977130661733  0.1911016178403834
  0.9718957111965556  0.9129189999782714  0.4812991349686030
  0.7431143709798336  0.3049859941231546  0.2986725923668899
  0.2631003594554606  0.4973583395869159  0.1817436223507950
  0.6903298017399779  0.3071745772892943  0.7634440863448865
  0.9815883115367624  0.9750859408592789  0.1566244049852101
  0.9014994179300793  0.7002784401467768  0.5476156947760259
  0.1179699863126917  0.3993170296800698  0.7025771567170948
  0.9584717637037519  0.1924432446747399  0.9649121331270740
  0.9549496380191931  0.6878583683942682  0.8705130270842312
  0.4396558701929644  0.5265143667207876  0.9763636158512267
  0.5241961277305778  0.4136248516327096  0.8179959695703668
  0.5853904510686289  0.6796660168239336  0.1364375183231472
  0.4374434698399309  0.5750918420708963  0.3512974399330488
  0.7261011674686577  0.3523790407028828  0.4989338286395342
  0.3457334419438068  0.7014207911152321  0.5310079275230402
  0.9146721711655129  0.8138845661323098  0.3029690131105511
  0.9216933114954107  0.4398338127918936  0.2677869119054366
  0.3327899320262745  0.2255480016441697  0.1141764832810914
  0.7138766531440048  0.8077068497420827  0.8495723964102488
  0.6250391984310372  0.1480827476280752  0.1696429377184648
  0.1989242002250408  0.2223768776584486  0.6069250371042980
  0.4785229095994328  0.7868909872587956  0.9134719227027405
  0.5450052611391898  0.0815090855713241  0.3853705709444235
  0.0678786287467482  0.8952233485641448  0.8803574723267713
  0.8576038083261792  0.9891342386579797  0.8083934733426383
  0.4477198508964721  0.0209918933568969  0.1649692340140499
  0.4283899414135734  0.0991149049134700  0.6413435504004659
  0.4861810397824731  0.2869954557710349  0.7948950934198727
  0.6606421396707146  0.0399731767408034  0.4059833357649123
  0.8472187069876791  0.9509809549640496  0.4815658388418103
  0.5674158093078866  0.7556115070921016  0.0245135609550253
  0.5485651136314563  0.0183508671537263  0.6916686808826232
  0.4636804478628673  0.1392177399589559  0.4874361726223203
  0.7848898003055886  0.3845400370938546  0.8009938411668585
  0.3198775653710380  0.5426020280981253  0.5601701677641996
  0.3538860202011717  0.8852235194121922  0.2307292601521640
  0.6720067042156310  0.2779017166170477  0.6185189408841297
  0.6338390610831646  0.4012859694984457  0.8772044981553926
  0.4634741196158032  0.9825190141713436  0.3645395114024667
  0.4764726883801519  0.6483256872341207  0.2115541499810131
  0.4339526957891129  0.6461974615029663  0.9322073021487374
  0.7398719070609907  0.4905915314891233  0.4792231021500277
  0.2362944513159890  0.3053649374405005  0.7419816819968268
  0.0686157915182572  0.7658814046545990  0.8781217376793987
  0.5119478590612128  0.1458904666956604  0.0476638079080142
  0.7640505282827185  0.9449544285944720  0.9147407923474019
  0.3004387379840560  0.3299626573068595  0.2253428078638609
  0.5573197026259669  0.9602688235399985  0.1254790432643632
  0.9578350773121977  0.3040167981716219  0.2232173637261211
  0.2536129628180125  0.7597372311057666  0.6560089063313648
  0.9035186620880977  0.0983535999948377  0.8782822142861477
  0.7192130235209141  0.0511322275064063  0.1815880209743587
  0.4313517182468928  0.7377463198746002  0.6164396171197192
  0.0534089336025565  0.0723863067143889  0.1475465425777007
  0.9461046232594582  0.4727304199178586  0.3975299303296348
  0.8332181030974645  0.0561452219383360  0.6917810203781303
  0.0990683115700357  0.8808479588630316  0.2074042606678420
  0.2728867633281624  0.1351991841907341  0.5573432304080762
  0.1805063854759507  0.1815906545578977  0.3311139194620651
  0.3309559854830658  0.5476596107117681  0.2781195871537886
  0.2767982765353043  0.1541756014399069  0.9768503880837953
  0.0125983087174471  0.8027566379572324  0.5709960797211353
  0.3909522350285824  0.3448896062224714  0.0431026057657857
  0.2562414660627222  0.3313566126606083  0.5508014568557472
  0.8114762800837080  0.7409140106927063  0.9306772314561284
  0.0703606476926043  0.2585712688412499  0.9995020997400316
  0.7901647523722597  0.4163694177721967  0.2344472930309322
  0.7166914255767293  0.8746671838776675  0.7324479971312743
  0.6353340865101119  0.3025464482234723  0.3930665891749801
  0.1405279862190932  0.4565591404026988  0.2213184904598151
  0.9311252590030186  0.5261437012071493  0.1764930059190175
  0.9590674472254376  0.5908887235775685  0.9530507391198919
  0.0862839966094923  0.1828947530335414  0.6316593494139763
  0.9549592140100770  0.6331202986678544  0.7559309653231697
  0.9091345759881966  0.9651515725889687  0.2768952163887925
  0.0834810046052388  0.4517620154801428  0.5990678071788398
  0.7794435346632952  0.6774230511913024  0.6399225968878061
  0.9773133844730110  0.6032369584475967  0.5366923311325686
  0.0951036214740474  0.0013970007189526  0.4702316378200132
  0.8589736000341636  0.7344620386181381  0.2252267780439161
  0.6588716397518480  0.2860717997295210  0.1944715414144175
  0.3338796634168113  0.0964603775636669  0.1286125876253812
  0.3363580399967367  0.0807234508058940  0.7668438227460785
  0.3480973944869060  0.7897452311966431  0.8936502466875634
  0.5246545556585522  0.1695084223746274  0.2753632306633809
  0.5743806099680788  0.6439821811588916  0.4306308084480815
  0.0339463560052165  0.7903312742315215  0.3785968014212573
  0.8223146711749516  0.2091954488944465  0.3779673393999952
  0.3750686040243197  0.6873459491096967  0.4157863754514981
  0.1663092459697089  0.6463921242566024  0.1932569053995013
  0.0839888761003395  0.9419128967637683  0.0062095963944173
  0.2967629317439593  0.8200628199885653  0.4838159527726186
  0.4815684261205837  0.4436581060119526  0.3746593029719502
  0.5976261058237435  0.7154530294290052  0.8102816220945015
  0.7113163229172037  0.6827089733530479  0.1704057888855171
  0.1681557609492732  0.9503388161863553  0.7987392480768568
  0.8518251927099741  0.3274757267483750  0.5565414096464842
  0.3134140319887642  0.5579290129786486  0.0406839887932479
  0.8655236571782960  0.2779168086631242  0.9699843323360758
  0.8449472068701667  0.7509443753569074  0.4349523759869036
  0.1587143614814033  0.5162802205716260  0.7889452262433562
  0.9616595276377112  0.9223389280917436  0.7918968433149978
  0.5291929146677044  0.9179092008893736  0.9011051345054131
  0.6804935739395762  0.1818937870516367  0.8292592052315203
  0.3944771100585939  0.4642180461905614  0.8647668405144360
  0.5284216740693847  0.5010168758032151  0.7338306987732598
  0.8889049351438834  0.9151171227529792  0.0853113509529283
  0.5187680135563684  0.5185206344809287  0.0922145795049111
