Sc Cl  C 
 1.0000000000000000
    13.7939866799999997    0.0000000000000000    0.0000000000000000
    -6.8969933399999999   11.9459428800000005    0.0000000000000000
     0.0000000000000000    0.0000000000000000   27.8102210700000008
 Sc  Cl  C  
  32  32  16
Cartesian
  0.0661797200000000  2.0037530700000001 15.0041065200000006
 -1.6921240300000000  4.9207031700000003 15.1189967900000006
 -3.4761611499999998  7.9301129699999997 15.2412542999999996
 -5.2771423600000000 10.8323707299999992 15.1930293100000000
  3.4911747000000002  2.0683079400000000 15.3102379000000006
  1.7107122400000001  4.9808575599999996 15.2411791500000007
  0.1008962000000000  7.9898458100000003 15.3875130799999997
 -1.8543705300000000 10.8377632500000001 15.1901094000000008
  6.9275202499999997  2.0275675400000002 15.1111801299999993
  5.2102834600000003  4.9776650800000004 15.0033955799999994
  3.5057335799999998  7.8799939999999999 15.1284669800000007
  1.7163199700000000 10.8963165499999999 15.2329351000000006
 10.4109504800000003  1.9059518400000000 15.1610933100000000
  8.6251547800000008  5.1003471899999999 15.0007608399999999
  6.8195923399999998  7.8862450099999997 14.9516200200000000
  5.1146532899999997 10.8651478400000006 15.0502163200000005
  1.8007143999999999  1.0101933000000001 12.7176437700000005
  0.1196502700000000  3.9037165200000001 12.6395903700000005
 -1.6052327900000001  7.0345627100000003 12.7710529000000008
 -3.5563264700000001 10.0279503200000004 12.7258574299999996
  5.1968089900000001  0.9050865900000000 12.8906461500000002
  3.5805482000000000  4.0752931400000003 12.6430529899999993
  1.6251059299999999  6.9918656500000003 12.8677733100000005
 -0.0399858800000000  9.9715769600000002 12.7911383599999997
  8.5901986499999996  1.0397838900000000 12.7011261500000003
  7.0204455799999996  3.9055204899999998 12.5336372199999992
  5.1422431900000003  6.9970328799999999 12.4828660500000002
  3.3153727599999998  9.9685881999999992 12.5832156000000008
 11.8582713200000001  1.1088920600000001 12.6715573599999995
 10.4947634399999998  4.0770902500000004 12.7144816600000006
  8.6596283300000003  7.0361554100000001 12.5866586500000004
  6.8446085800000001 10.0874678099999997 12.5074930299999991
  0.0474623200000000  2.0953470900000002 10.9322364899999993
 -1.5463901200000001  5.0045179800000001 11.0802704399999996
 -3.0311884800000000  7.9882556500000002 10.9936951000000001
 -5.2516661400000002 10.8969084800000005 10.8294435500000006
  3.5225231600000000  1.9990816899999999 10.9213738500000002
  1.9233353600000000  5.0857501400000000 10.9475023799999995
 -0.0148901900000000  7.8511994200000004 11.0007615500000000
 -1.7193010500000001 11.0259359099999994 10.9680028699999994
  6.7845743100000000  1.8718122900000000 11.1711194900000006
  5.1669216999999996  4.9579935700000002 10.9485822099999996
  3.4204985400000001  7.9286213999999999 10.8122659700000003
  1.5766464499999999 11.1115704500000003 11.1598938400000005
 10.1755289999999992  2.0693383299999999 11.1038846099999997
  8.7654984400000000  4.8493380500000001 10.9006721700000000
  6.9199187899999997  8.0300408200000000 10.7360014600000007
  5.0979999500000002 11.0410911299999999 10.8678381999999996
  1.4899791800000000  0.7798983900000001 16.8610991699999992
  0.1859691400000000  4.0928548400000002 16.6984518100000017
 -1.6761382499999999  6.8888216800000004 16.9734860999999988
 -3.6528877199999998  9.9834051600000002 16.9661208700000010
  5.0594226799999999  0.8333996200000000 16.9272383399999988
  3.3514672999999999  3.9275762400000001 16.9181608200000007
  1.7653762600000000  6.9867960599999996 16.8443357700000007
 -0.0217481900000000  9.9744217699999993 16.8700222699999998
  8.7807694000000005  1.0353558700000001 17.0051506000000003
  6.9264185800000000  4.0060803900000002 16.6077723900000009
  5.3260904800000004  6.8593077800000000 16.9474981900000010
  3.4214399400000000 10.0316223400000002 16.8204395799999986
 12.0467747000000003  1.1421769399999999 16.8898076699999997
 10.3111999200000000  3.8906102300000001 16.6976044299999984
  8.4343758599999994  7.1335570500000003 16.7374336200000009
  6.7185914999999996  9.8021063599999998 16.7156170800000012
  6.8734196000000001 11.9283573900000004 13.7893192800000008
 -1.7325466599999999  3.0937900699999998 13.7724485300000001
 -3.3366992600000001  5.9492895700000004 13.8136167800000003
  8.4320505299999997  8.9014508800000005 13.7659459099999992
  3.5132463899999999  0.0420716000000000 14.0096708499999991
  1.7595366100000001  2.9055211900000000 13.9670057700000001
  0.0787584200000000  5.9065033299999996 14.0390942100000000
 -1.8907033099999999  8.8721133099999996 14.0246091100000001
 -0.1009137700000000 11.8085921700000007 13.9488332400000008
  5.0723012000000001  2.9539145699999998 14.0331348499999997
  3.4869415400000001  6.0667474400000003 13.8192482499999993
  1.6669016000000001  8.9903130999999998 13.9455006499999996
  3.4652410499999999 11.9343214100000008 13.8699210300000004
  8.7039275000000007  2.8757703200000000 13.8738809599999993
  6.9469290700000004  5.8743823300000004 13.5970436800000005
  5.1272841600000003  8.8865269599999994 13.8239759600000003
