Sc  F  C 
 1.0000000000000000
    13.1286234000000004    0.0000000000000000    0.0000000000000000
    -6.5643117000000002   11.3697213799999997    0.0000000000000000
     0.0000000000000000    0.0000000000000000   26.8280942399999986
 Sc  F   C  
  32  32  16
Cartesian
 -0.0235761200000000  1.7642932200000001 12.0227426400000006
 -1.6191204299999999  4.7897330699999996 12.0873880800000002
 -3.1917372799999999  7.6176985200000003 12.0323343299999994
 -4.8123900600000002 10.3889736100000007 12.0745804700000008
  3.2823674199999999  1.8501348900000001 12.1982838200000003
  1.5628317300000001  4.6621185499999998 12.0641588599999992
  0.0728162500000000  7.6186489000000002 12.1567790000000002
 -1.6213373900000001 10.4143313200000005 12.2756227500000001
  6.6135146799999998  1.8243864700000001 12.0819096300000002
  4.9206349100000004  4.6724356199999999 12.1842629900000006
  3.2555578900000000  7.7265708799999997 12.1700620300000004
  1.5366857199999999 10.4388040199999992 12.1781378000000000
  9.7156524900000001  1.8736870400000001 12.1417937800000004
  8.1692633899999993  4.6404168700000001 12.1858014299999997
  6.5269470299999996  7.5324268200000004 12.0952622499999993
  4.8843584599999996 10.4047924999999992 12.2101253199999995
  1.6292112400000001  0.9400101400000000 14.5772153400000004
  0.0510429800000000  3.8687004200000001 14.6127185700000002
 -1.6663298799999999  6.5934106500000000 14.6238255299999995
 -3.2318157200000002  9.4845596699999994 14.6576157699999996
  4.9318745499999999  0.9584752100000000 14.7690118399999992
  3.3563072799999998  3.8443849499999998 14.6806241300000000
  1.6755949400000001  6.7102427799999997 14.8094369100000005
 -0.1103172400000000  9.4236457500000004 14.7440353000000002
  8.1389265999999996  0.9641393200000000 14.8333807400000008
  6.5825004600000003  3.7086488499999999 14.7354038400000000
  4.9211994600000004  6.5684754400000003 14.6566086999999996
  3.2155171500000002  9.4008738699999999 14.9890181499999997
 11.6220614300000005  0.9797747600000000 14.5844638799999995
  9.9779801700000004  3.8110628800000002 14.5869088999999992
  8.2864495500000004  6.6886104800000004 14.6444053600000004
  6.6198307999999999  9.4709328199999998 14.6327860800000007
  0.1727123400000000  1.7917432600000001 15.6853120500000003
 -1.6203728799999999  4.7063559300000000 15.6446781599999998
 -3.2283129399999999  7.6647613699999999 15.8735085700000003
 -5.0832298900000001 10.7493365200000000 15.8703204299999996
  3.1547882100000000  1.9911463400000000 15.8349558399999992
  1.7985280400000001  4.7324922899999997 15.9419779800000008
 -0.0109680700000000  7.4346646999999999 15.8995421199999996
 -1.7882323499999999 10.4149612600000001 15.9693791199999993
  6.5427142800000002  1.9315768600000001 15.9709148299999999
  4.9430230699999997  4.7392679700000002 15.8573000600000000
  3.4608379999999999  7.5950940100000004 15.9730034300000003
  1.3761552800000001 10.3484950700000002 15.9680443699999994
  9.7260233700000001  2.0772555000000001 15.7298962800000002
  8.2510090999999992  4.8353871399999999 15.9649914800000001
  6.5735898400000004  7.5365152000000002 15.7949055099999995
  4.8868867700000003 10.5434413599999992 15.9031473299999995
  1.8506821200000001  0.7996356700000000 10.9715134699999997
 -0.0067206000000000  3.7988473200000001 10.9126158400000008
 -1.5587613400000000  6.8055853800000001 10.9351639400000007
 -3.1650364600000001  9.5387064000000006 10.8697285400000005
  5.0279767599999996  0.8328403599999999 11.0134577399999998
  3.1704349900000000  3.6943069899999998 10.9009430199999997
  1.4297564700000001  6.7171469000000004 10.9602900699999992
 -0.0199127900000000  9.4657258500000001 10.9775326700000004
  8.1290836599999992  0.8210299200000000 11.0022048300000002
  6.5914752200000004  3.6343842999999998 10.9592174599999996
  4.8938381900000003  6.6469742099999998 10.9868088600000000
  3.1109282000000000  9.5874055200000008 11.0455039799999994
 11.3781640399999997  0.9289873500000000 10.9969520099999993
  9.7956100300000006  3.7972741299999999 10.9979718200000001
  8.1627207199999994  6.7933201900000002 10.9280522500000004
  6.5134537200000002  9.3324840899999995 10.9182916199999998
  0.0411132200000000  0.0230324200000000 13.3191308300000006
 11.4623097999999999  2.8788574800000002 13.2658192100000001
 -3.2464148499999999  5.8236359100000001 13.3995165200000006
 -4.8219276899999999  8.5514540799999992 13.3967312199999995
  3.3482665699999998  0.0676634700000000 13.2926707799999999
  1.7213568900000000  2.7434840700000001 13.4053417199999991
  0.0419284000000000  5.6917001699999998 13.4420943600000005
 -1.7162978900000001  8.5793178200000000 13.5039608900000001
  6.4788459500000002  0.0645422200000000 13.4360743899999999
  4.9913722099999998  2.8060944499999998 13.4902275800000009
  3.2754918599999998  5.6775394300000004 13.3818084200000005
  1.6546181200000001  8.6201578899999998 13.5383622199999998
  9.7248293300000004  0.0052872200000000 13.4742558199999998
  8.1673022799999995  2.9135380799999999 13.3410404099999997
  6.5048925899999999  5.7667042999999998 13.3268870300000000
  4.8771685500000004  8.4660704700000000 13.4205045700000003
