Ca Si  O 
 1.0000000000000000
    11.1219476799999999    0.0000000000000000    0.0000000000000000
     0.0000000000000000   11.1219476799999999    0.0000000000000000
     0.0000000000000000    0.0000000000000000   11.1219476799999999
 Ca  Si  O  
  27  27  81
Direct
  0.1179635058308420  0.2465151544392088  0.7095540292992999
  0.4574855732462860  0.7434046389975464  0.1382241747787110
  0.9691575909301525  0.2009409416678716  0.2973995612250533
  0.0353713963883707  0.2742991603427503  0.0299478481272625
  0.7889788346855449  0.9939372876100420  0.0833705828042521
  0.6616665175680813  0.9915610419415315  0.3813935708066557
  0.8487481546937110  0.8045919543473342  0.4440105080587827
  0.4961030773343828  0.4876460612877114  0.2365789631191648
  0.1207106020121109  0.5616165486223542  0.9088907510487408
  0.6571060024982962  0.4849137035321856  0.6918480909451643
  0.8230159162194511  0.7908557010942528  0.8068214478419484
  0.3988871281940790  0.0150597822269202  0.2941471731505214
  0.0261880884877531  0.5148215613616337  0.3904949784838405
  0.9572769685965650  0.4110069145730777  0.1548416724794375
  0.7328014934520893  0.5267894112229811  0.3448576436748712
  0.3851955047139728  0.9050744293736869  0.8624898530362445
  0.8035773910419978  0.7312557084426061  0.1150031412483681
  0.4197011471645405  0.3017478391878211  0.5016566666675778
  0.9183010929251196  0.1102873593089947  0.6129180792909465
  0.6012621756911555  0.9112037712804633  0.6158076693991426
  0.0464792619848037  0.8011896339005254  0.6133135765659347
  0.2123460537624108  0.7991302904600609  0.3847662264852517
  0.7703380582707435  0.2746020677198510  0.9098152213210196
  0.3337229635304308  0.2360388356007803  0.9558911079142929
  0.3494760182148240  0.5082025066674293  0.9787614582628570
  0.2566425676622136  0.2960108719015301  0.2956599324696697
  0.8451140385152396  0.2781917159675040  0.4710156117188279
  0.6452426685035439  0.0103735202969414  0.8509822490011929
  0.7213350818424277  0.7328724054922006  0.6161172833353951
  0.4444383413966932  0.6137433439176185  0.7394628887518736
  0.2897204520926140  0.0093272700955558  0.5839926932653939
  0.9363233203053514  0.0465788119945553  0.8598014794833129
  0.6135146789325662  0.7278876391909083  0.9112988733282730
  0.6566227220374767  0.2347045549129934  0.5752461164248166
  0.1752224031321823  0.0171879751191205  0.8775385068166406
  0.0079386553992493  0.8083890392838100  0.9674732852186911
  0.7323625118869467  0.2687007452277459  0.2119240746149599
  0.5434471302961569  0.3450267642330790  0.8270092329727629
  0.8258132257281038  0.5248851179634393  0.9299760201713159
  0.5037525199003633  0.2454367435039040  0.1959782650227321
  0.5557606507280386  0.6773592680666162  0.4088206176492282
  0.2666802906593065  0.4981128233467828  0.6503152063020674
  0.3290961291412944  0.5575733683005422  0.4174544273705844
  0.3532448167387890  0.7801608404976780  0.5911293110848369
  0.1732807252335501  0.0436871736839532  0.1130657557633826
  0.2547226071827736  0.7925356109929119  0.0456148459421633
  0.5128534924019711  0.9821790422232951  0.0764003683930295
  0.9433193629265481  0.4939449760116116  0.6335442930262013
  0.1275542073040933  0.0695367036648387  0.4367727146150359
  0.0376961672597978  0.6652444969962311  0.2004539631137700
  0.6246020085575514  0.4836196613001869  0.0292430066529498
  0.4152151271403930  0.1226728509479915  0.7043746379141391
  0.9921100141337834  0.9357408395936637  0.2610502713675776
  0.2182521874621874  0.5248090197813265  0.2029170308055252
  0.3929827648676729  0.3196754347616208  0.1412106355098408
  0.6612935738967619  0.4341315630069570  0.8851206527164672
  0.2460959670689621  0.3509347330430887  0.6444595035174631
  0.0420020003187068  0.0195710801977087  0.1534659062521322
  0.2367846519126945  0.0842280603139827  0.0084427136956285
  0.1250821618682529  0.4128774754315334  0.2696572980102349
  0.5834205120087383  0.9625946316266072  0.1952383235811086
  0.4147835822223541  0.8854231285144832  0.5432783388170012
  0.3692882872831497  0.9104949952434950  0.0517444674762217
  0.1953514449548283  0.3777633837961014  0.9691242829151664
  0.5423751831567688  0.6038938352567398  0.9537579608538492
  0.8364198931387168  0.5663590057456555  0.5472707555480966
  0.0342081828602884  0.5396120088563481  0.7491979615210704
  0.6330239192421736  0.1936563632530952  0.0943431708357038
  0.9921603461454154  0.0827050617810495  0.9937698618988648
  0.4729122291645234  0.1007365663133564  0.1411142585054851
  0.2143045021049766  0.0152919771692362  0.2545565094764050
  0.6071412907419828  0.6625200578177868  0.2340989172860414
  0.9766266568159220  0.3633186602079034  0.6228690881595659
  0.7522889489082726  0.5535393545386648  0.0538658450153759
  0.0002310746349420  0.8043373100996281  0.1882175820485428
  0.8781279629252851  0.8733160287623292  0.9930975542945550
  0.1758927695297340  0.6285534999028155  0.3130191006257278
  0.0705289938929114  0.1848114520171884  0.5130285615585632
  0.8773960641397299  0.7294889018934856  0.6322262999532471
  0.2069892662900928  0.7306567791730522  0.5544835560672229
  0.8031458011678040  0.9689404014531382  0.7341844589580014
  0.3969257954646303  0.5188541041581307  0.5943574758841160
  0.7735057453534073  0.6651639814223618  0.9074866849220783
  0.2135376786811139  0.9006160007398992  0.8070877528170497
  0.7041700307656904  0.6707299939393349  0.4999683634548440
  0.8043900562567652  0.1513468259724811  0.3409318537632250
  0.2051858582380959  0.5219483724454995  0.5117724713123268
  0.3719842925928958  0.9749951593010909  0.7010680219276125
  0.6172808331355142  0.3535411308462476  0.4973064546910366
  0.8577712073898193  0.9690557211828208  0.2907332162526411
  0.3256470704778571  0.4799860234552011  0.3023305707548518
  0.5408948938698838  0.1647688410992417  0.5440800266379242
  0.9051263168682699  0.5991392732392354  0.2692905223233346
  0.2851102622701782  0.5413280733937061  0.7726854312984863
  0.1062497931117763  0.2001235299822954  0.1748497175091908
  0.0440412978098095  0.9722153080655384  0.3849539804704422
  0.8382029765131928  0.5136538693014243  0.7733462732851123
  0.6968354934753658  0.3910703165616762  0.1281948019377843
  0.9833315328093684  0.6806276650278218  0.0366331978644949
  0.6047190000807484  0.8002811886991362  0.0227973145797068
  0.4819464687501569  0.5027411745565773  0.8299948656115238
  0.5156645090421789  0.5385624444872411  0.4170899012896633
  0.6183279959468394  0.2598948253638970  0.3057391841641894
  0.1103135732427758  0.5479060174827219  0.1132625495321517
  0.5367681859118402  0.0272076527157337  0.9601220251379567
  0.3668191604008696  0.5711355738008650  0.1561545603314688
  0.6112486234964917  0.8616843924948224  0.8295314090166624
  0.7662858678364146  0.1311357112947685  0.5511940387045590
  0.7768338189125521  0.0769816209025720  0.9171991105788045
  0.1334085038601800  0.9865668015802066  0.5605153062543448
  0.0437467846459065  0.7614658370700049  0.8080459447009375
  0.5680353937791586  0.8209806387076980  0.3931444532743927
  0.7442869278090327  0.9092930322074666  0.5433056784528948
  0.3106040335194240  0.1525295136076382  0.6001052029764629
  0.2741313453112737  0.0378981912275998  0.4150859627133222
  0.5705742386660823  0.0612399805858464  0.7262596905149261
  0.3965617603049181  0.7425660107043409  0.7632007679072268
  0.5414109185955098  0.2272039361005158  0.9166273051556020
  0.8906465742338394  0.2211904758753550  0.1460081171681973
  0.0009363494865856  0.7231085490954224  0.3999085266331697
  0.2929550636044711  0.7044899675341756  0.9479018103059446
  0.4501218845870348  0.7118797532412057  0.5904756962496338
  0.7356633096479375  0.2983053405264715  0.6968986946358302
  0.2714966260298035  0.1007025354034034  0.8118995835808499
  0.4001006098960537  0.6950080932227510  0.3817235363941219
  0.8431379781495250  0.3589362731114736  0.3181678876590435
  0.5343899729620020  0.3794909966704680  0.0143909785053044
  0.9410863187948389  0.4788638216287671  0.9909344520491395
  0.4530473263294473  0.1798143659312736  0.3309581213566722
  0.6303719565780226  0.6998613079251600  0.7275479037319117
  0.9865530989442669  0.2123193174381126  0.8392832702122548
  0.4510214635356026  0.2670331119558009  0.7354153099198898
  0.0104180907277924  0.9607538137600733  0.7976379763009279
  0.1071847004049204  0.8656346493440795  0.0359350440677491
  0.2619647937419536  0.7477410566275924  0.1829806503819122
