Ca Si  O 
 1.0000000000000000
    12.9304129900000007    0.0000000000000000    0.0000000000000000
     0.0000000000000000   12.9304129900000007    0.0000000000000000
     0.0000000000000000    0.0000000000000000   12.9304129900000007
 Ca  Si  O  
  27  27  81
Direct
  0.7903358800607032  0.3488124132994146  0.7398052604660077
  0.3180894688499813  0.0698807463225504  0.6776555587804161
  0.6111612727382808  0.5408126070998758  0.7361925057894070
  0.5410028268555712  0.7016673455841413  0.4731057488056304
  0.1145014216595413  0.4697041699052491  0.0972725334428781
  0.5989432863427822  0.9684545543660937  0.5031608723581844
  0.1025557003496761  0.6828816602245278  0.6669749393673465
  0.6847577565270017  0.9118136256837378  0.9175901449687571
  0.8621455106361611  0.8684651618385779  0.3420965829491266
  0.0131886870227491  0.1955833044123055  0.1651900153268036
  0.2544511256171408  0.1294424703444836  0.4203031283071184
  0.0930680405127570  0.1930119464807597  0.8899200999147668
  0.6114323769947893  0.6817516120186971  0.0505742833199328
  0.2233344768054465  0.8825985487722616  0.8701803854758393
  0.1161991779506186  0.6037819461789673  0.8897421829370354
  0.0292958206588574  0.3135557428162238  0.5762349876807763
  0.5028990748423109  0.9257954551999193  0.0646477224390650
  0.7135510332992078  0.0265223531735006  0.1717837320213853
  0.8764261952626154  0.0742720368438905  0.6415703246613781
  0.4752236919851081  0.3622537163834239  0.3909710976679330
  0.9007638896768138  0.6294097161702490  0.5881852842505381
  0.2644905543732366  0.7715805100514427  0.4282458429040479
  0.2000325196109610  0.9459528229654790  0.1420113055491818
  0.4802292273883512  0.3048233047968563  0.8478662126630186
  0.8175673026202390  0.5720058288718278  0.2552038285669637
  0.9554862686562959  0.8142932262212299  0.9462257353622238
  0.5519164403734950  0.2807686036639113  0.1411115121698831
  0.9887035866439096  0.0928683663026605  0.3281280229240381
  0.8553093330083961  0.0487554922250012  0.9782244116860183
  0.9505676322562687  0.4022067666378535  0.3531000149439156
  0.8218667530742186  0.6550369223744338  0.7881700845813432
  0.4449441208451301  0.5396545195730829  0.2850870883127145
  0.4112099647638555  0.8391960557170107  0.6713095603916979
  0.3356633901296605  0.6631326614727099  0.8036316773513975
  0.2488643496915871  0.4978402596249944  0.2619950238727835
  0.7843035615214328  0.8190985986442185  0.5606698166258648
  0.2831048244809387  0.1823034068457855  0.0851890879937007
  0.6331763862710157  0.1922752205921614  0.5928316973269390
  0.7064942556022721  0.4657240673331348  0.5352816901790234
  0.5333087555156272  0.0278843730883804  0.7807898763796560
  0.0546944896923977  0.5831360480002735  0.3887860970788684
  0.0233371146175587  0.4194749629570803  0.8363686348118723
  0.3648648201452381  0.1226361007360214  0.8950195085764233
  0.4858975498198685  0.1026739200848990  0.2609434735463929
  0.7640466369976324  0.3132142448297779  0.3716751470905648
  0.3517527192300453  0.3141565295046311  0.6153282270375495
  0.0928947691716380  0.0541404648514633  0.5406286299908817
  0.4272408023063461  0.7491553840926467  0.2397740035370672
  0.3802997014714841  0.6504514245990839  0.0019373340990248
  0.2248119640299285  0.4808996607307900  0.6693831331368790
  0.7252513517744957  0.1896295912509752  0.9915524229516507
  0.6668566330146273  0.7795741851243067  0.2174323822583489
  0.9910195536608302  0.7521501762953358  0.1458148600093553
  0.6696899261219962  0.4415396595928836  0.9838653158130876
  0.5525306620542829  0.8002012625584358  0.2157531474174515
  0.1224425175920077  0.7398636638596645  0.8112094221671106
  0.2624401349457594  0.6050203753004798  0.7146809747799091
  0.1869427853440898  0.5845775889637690  0.3255876059995822
  0.4250209551891506  0.5612029712904011  0.8800581596891438
  0.6576813305635955  0.0239064947298331  0.7613000797123032
  0.1140067243900150  0.1615548785344713  0.4814054094648063
  0.3522774217283527  0.4357242359047033  0.3431301879863622
  0.4804425454008643  0.9905512004841230  0.9153608611846821
  0.7699188624291574  0.4239462300422625  0.4327088573525910
  0.5142604257994392  0.5650311784821035  0.3725386044301436
  0.2835289748931677  0.1008219467551593  0.1819400147403954
  0.4342893281400132  0.1996918035020937  0.3038706182887357
  0.6600362004369359  0.0738678888863549  0.9818189851954605
  0.9672583628746108  0.4702245670499655  0.2490476060192722
  0.6844800105646124  0.7556571207398072  0.5332263343276246
  0.3855635457162610  0.8209477166900606  0.5609455054227158
  0.8906373368666858  0.7862591757790406  0.5031886193450964
  0.8357911428163904  0.7681522336279222  0.8406774175277134
  0.3235073182299029  0.7225166811938000  0.9152680791520488
  0.7884465049866902  0.4774124480613360  0.6290261870436978
  0.6476821959574549  0.2667735425517913  0.3424916902054804
  0.6319354313214400  0.2677614924347440  0.9574767124278835
  0.1610399119974280  0.2339095388785413  0.0528958595931127
  0.7551357406411812  0.1756830374835537  0.1153565652662112
  0.4360601053006273  0.7087065144080907  0.1041720315539589
  0.9617419698518075  0.0765949371273717  0.0416653490044482
  0.7144175926278749  0.4986500373179495  0.0907864614152591
  0.0664251645066752  0.5117281903615362  0.6111926831812663
  0.0983861096303622  0.8030435244435298  0.1637265493095437
  0.1540942343868631  0.4654221202875903  0.7864413934701400
  0.8367358976366307  0.3524655386896501  0.2779378139568611
  0.0737953985489832  0.4181105579675689  0.9437523920881354
  0.4411018885793531  0.7259562758946340  0.3750894146807913
  0.0807431495658670  0.3947005740610919  0.3854836627302498
  0.5217250814198472  0.4861740305481148  0.1999869835557356
  0.5420389314262730  0.1155406119785506  0.1440750841787305
  0.6850689136418682  0.4706882413351285  0.8658322776432835
  0.0103318192623328  0.3075785199649683  0.8116971351276229
  0.9649505023273043  0.6459671115268840  0.0707263411236179
  0.5175866923334829  0.0002920703308487  0.3282468953839656
  0.9368378325865058  0.5115515200570558  0.4315638668552689
  0.5303004811449569  0.4341368426779074  0.9843438140640548
  0.2827018311655643  0.0676534354066289  0.0002757460262683
  0.2453993652371346  0.3081355694579404  0.6795302668828367
  0.9868399532070939  0.6669780661042908  0.2945185171537201
  0.0048129939892972  0.2224943118386817  0.3159291287261506
  0.5274235915955844  0.7983864017324013  0.9364059879111409
  0.3886022259216331  0.2079901710857884  0.0137015840203260
  0.8226160895422413  0.1682990776615558  0.8971581363233782
  0.3518384202823517  0.8491975498765565  0.2055741856084366
  0.4357893923695936  0.2821408916189613  0.6934734402477890
  0.0324786370183834  0.0812035478535786  0.6595512607830479
  0.9061996704252212  0.8383104436326283  0.1372808201387541
  0.2121922665673496  0.4089726711814794  0.1886984075363242
  0.5496048220189137  0.1170034546591849  0.5306839259741231
  0.3342709249381833  0.5895633353625777  0.2245243978088901
  0.2212988821171442  0.0006856362597897  0.5566804251006371
  0.3341046990023479  0.4538050218920347  0.6318357245293215
  0.6775131232679985  0.8593147449035964  0.1016372300727264
  0.8530953851613985  0.9391915741122820  0.9527594717606928
  0.8728405039134021  0.0604786869997723  0.2723260225890125
  0.8786956324432140  0.2632632571467464  0.4567960083384776
  0.1122117206250193  0.7002746793163332  0.4650766015478984
  0.0779044413182351  0.0074613347674675  0.3044894005353808
  0.2744359923186027  0.1689345855920724  0.8368402237707645
  0.6093512029425133  0.5619962870188263  0.5536574945855616
  0.7636336741631019  0.9337647884361967  0.5245589468213885
  0.7133404708057974  0.7799342981387635  0.3299776289666677
  0.2245013088325186  0.5540281401329007  0.0007364876904833
  0.9432632220975952  0.6820291259699354  0.7434039684141597
  0.4882340266225325  0.9275520147172035  0.7076460169583492
  0.3359072005943717  0.2838336094012106  0.5009038098790067
  0.0095207005449251  0.0001424161781549  0.4619174804872184
  0.9153594946390030  0.4983790413333116  0.7989609634270467
  0.7317865946987050  0.1405576381361969  0.6123550791551322
  0.6564028942125846  0.3195966333941511  0.6160139483680946
  0.3250465722363598  0.9207563261287603  0.7509298888990862
  0.4587195230799817  0.1186099903526747  0.7767484122717103
  0.4339637654527846  0.7287713375657616  0.7396864034734902
  0.6718296458681015  0.6518444543510284  0.1964801953321059
