Sc  F  C 
 1.0000000000000000
    13.1286234000000004    0.0000000000000000    0.0000000000000000
    -6.5643117000000002   11.3697213799999997    0.0000000000000000
     0.0000000000000000    0.0000000000000000   26.8280942399999986
 Sc  F   C  
  32  32  16
Cartesian
  0.0537738200000000  1.8026754400000000 12.0766786499999998
 -1.7255435299999999  4.8285350100000004 11.9861680600000007
 -3.4031768499999999  7.7055028999999999 12.2333132899999999
 -4.8260413099999999 10.4671644399999995 12.1566529400000007
  3.3828421299999998  1.8157135499999999 12.0927351999999999
  1.6921416400000000  4.7384034399999999 12.0467209700000009
 -0.1057033900000000  7.5858620999999999 12.0517906999999997
 -1.6098760800000000 10.3865705800000008 12.1092524099999999
  6.6482655700000004  2.0067474100000000 12.3047400600000003
  4.9851849799999997  4.6821300600000004 12.1473704999999992
  3.1955184200000000  7.4893153400000001 12.1256565599999995
  1.5787401599999999 10.4809156300000001 12.1546052200000005
  9.7873488399999999  1.7295978900000000 12.2756026699999996
  8.2612778999999996  4.6805660199999997 12.2689511600000003
  6.4737215700000004  7.6464174800000002 12.2083103800000004
  4.8413629399999998 10.4144773900000001 12.0697587899999998
  1.5865768499999999  0.9565574700000000 14.6285777600000007
 -0.2172778600000000  3.8466806899999999 14.6292568700000007
 -1.5428112400000000  6.7266900999999999 14.6532175200000001
 -3.2215572400000001  9.4621036400000005 14.7138103000000005
  4.9519972799999996  1.0900434299999999 14.7619219299999997
  3.2662067200000000  3.8230503300000001 14.6174759099999996
  1.6313639400000000  6.5885904999999996 14.7154847899999996
  0.0152444200000000  9.4015516500000000 14.6017201500000002
  8.1665800900000001  0.8389757600000000 14.8044674900000004
  6.6673950599999996  3.8327593599999998 14.7133629500000005
  4.8868177199999998  6.5245577900000002 14.7341773699999994
  3.1788417700000000  9.3762239399999991 14.6068478499999994
 11.5379143000000006  0.8511154700000000 14.7068943900000004
  9.8902186800000003  3.8444885700000002 14.7228764600000002
  8.3227449599999996  6.6215071700000001 14.7299320199999997
  6.5583809400000002  9.4898246700000009 14.6728507300000004
  0.0413880900000000  2.0454505799999998 15.8350572900000000
 -1.6186399700000000  4.7080018299999997 15.8412463599999995
 -3.1988962900000000  7.5617813399999996 15.8286386799999992
 -5.1472508100000001 10.6456068899999998 15.8302385999999995
  3.2278125000000002  1.9860478399999999 15.8095978800000001
  1.7932004500000001  4.6629786299999996 15.8425548599999999
 -0.0653021700000000  7.3908927499999999 15.8847168199999995
 -1.6261277700000001 10.6919360900000004 15.8777052100000002
  6.5545089699999997  1.7780558300000000 15.9972038899999998
  4.9400377000000004  4.6405811300000002 15.7617834499999994
  3.3194319900000000  7.5096245899999996 15.7176544699999994
  1.5210936100000001 10.1349650300000000 15.8281594999999999
  9.7061209599999998  1.6558235500000000 15.8724903699999995
  8.3334240499999996  4.8210918999999999 15.8178377599999997
  6.8527887900000000  7.5586761400000002 16.0650953600000008
  4.7924508200000000 10.3959744999999995 15.7637022000000009
  1.8454418800000001  1.0587608799999999 10.9181641299999992
 -0.2620651100000000  3.8203192399999999 11.0201828499999994
 -1.6177105199999999  6.8138731999999997 10.7943943200000003
 -3.2411849699999999  9.4280289300000000 10.9305088700000006
  4.9075099199999999  0.8679803300000000 10.9988506600000004
  3.4741200299999999  3.8904573199999999 10.8017019399999992
  1.8162621200000000  6.5520662300000003 10.9375420900000009
  0.1232388100000000  9.4363072799999994 10.8720263500000005
  8.1113811200000008  0.8801178600000000 11.0666903600000008
  6.7085458700000000  3.9854386100000001 10.9658052900000005
  4.9013847000000004  6.6119771500000004 11.0339846099999992
  3.2302816600000002  9.5209136999999995 10.8846582900000008
 11.4791781000000004  0.9055258200000000 10.9521551400000003
  9.8664585799999998  3.8830116100000001 10.9391193999999992
  8.0966367300000002  6.5880376900000002 11.2540146799999992
  6.4873457300000004  9.6504366699999995 11.0305818900000006
  0.0121960700000000  0.1135987000000000 13.3468875600000008
 11.4026533800000003  2.8248437599999998 13.4549882099999998
 -3.1208297300000001  5.7013238900000003 13.3532532100000001
 -4.8302739099999998  8.5242294500000000 13.4972277199999997
  3.2742805399999999  0.0168876800000000 13.4563625899999995
  1.5882274599999999  2.9176344300000001 13.3186545400000007
 -0.0142056000000000  5.7247480399999997 13.3549720799999996
 -1.6819551300000000  8.5499315199999995 13.3957588300000001
  6.6135968900000002  0.0402296000000000 13.4612826499999994
  4.9626332499999997  2.7917811200000000 13.3918738600000005
  3.2658107500000000  5.6685946100000004 13.3616636199999999
  1.6394597399999999  8.4935796099999994 13.4142876199999996
  9.7428499700000000  0.0438517700000000 13.4382964800000000
  8.1614082299999993  2.8394152500000001 13.6145598299999993
  6.5450213399999999  5.7895989700000001 13.5823854999999991
  4.8923882399999998  8.5913462200000001 13.3496695899999995
