Sc Cl  C 
 1.0000000000000000
    13.7939866799999997    0.0000000000000000    0.0000000000000000
    -6.8969933399999999   11.9459428800000005    0.0000000000000000
     0.0000000000000000    0.0000000000000000   27.8102210700000008
 Sc  Cl  C  
  32  32  16
Cartesian
  0.1214516600000000  2.0441427999999999 15.4406546700000007
 -1.8165147900000000  5.0216932900000000 14.9855628599999999
 -3.4535548199999999  7.8723893399999998 15.2055671700000001
 -5.2103372700000001 10.9622827899999997 15.2947463399999997
  3.4804468599999998  2.0467829599999998 15.1159007200000008
  1.8748907699999999  4.9471108600000004 15.1417799700000000
  0.0997240600000000  8.1349361699999996 15.1207513299999992
 -1.8013349500000000 10.9548643299999995 15.2563332900000006
  6.8279003400000002  2.0502102099999999 15.1994832300000002
  5.2070786499999997  5.1421383299999999 15.0610593599999998
  3.4335620300000000  8.0293221999999993 15.0098075600000005
  1.6437527000000001 10.8802468799999996 15.1635658699999993
 10.3830708400000002  1.8502844400000000 15.2563376900000005
  8.5927633199999995  4.9375935200000001 14.9167324699999995
  7.1015660299999999  7.8906755500000001 15.1661598899999994
  5.2028789700000004 11.0410645100000000 15.2947875500000006
  1.7782903999999999  0.9156029200000000 12.8678210199999992
  0.0331365600000000  3.9317766199999999 12.7461199999999995
 -1.6889801099999999  6.9965544800000004 12.6105236299999994
 -3.4645635499999998  9.9321934200000008 12.6364391999999999
  5.1618436900000004  0.9649897900000000 12.7886754600000003
  3.5021485800000001  4.0144042200000003 12.5613988499999998
  1.5855302800000000  6.7864992500000003 12.4370327899999999
 -0.0374164400000000 10.1816249699999997 12.6377308700000004
  8.6599266700000008  0.9883348100000000 12.7125895599999996
  6.8561542500000003  3.8079147700000000 12.4921247199999996
  5.1963625899999997  7.0536378199999996 12.6771722800000006
  3.4473293599999999  9.9921641700000006 12.5326352300000003
 12.0722928300000003  1.0721706300000000 12.7986262800000006
 10.4886559599999991  3.6774172799999998 12.5639358800000007
  8.6570246300000004  6.7833423000000002 12.4805226800000000
  6.8182898800000000  9.8554287499999997 12.8424394500000005
 -0.0954964700000000  2.1392486900000001 10.8850588500000001
 -1.8746330099999999  5.1375728199999999 10.8388833299999998
 -3.3303923100000001  8.1437383600000004 10.7050617999999993
 -5.3117210300000002 10.8936293499999994 11.0477798800000002
  3.5210764499999998  2.0064364200000000 10.9587744499999999
  1.6863008700000000  4.8478819299999998 10.9457711900000003
  0.1206488400000000  8.1294599999999999 10.8806474899999994
 -1.7146520900000000 10.8497344899999995 10.9300518400000009
  6.8296233500000003  1.9248782000000000 10.9164827399999993
  5.4500989400000002  4.8489455200000000 10.6913537699999992
  3.6397069300000000  7.9442997999999996 10.8601634800000006
  1.9405814500000000 11.1465671600000000 11.0677123999999996
 10.3935723600000003  1.7790074600000001 10.9736426300000005
  8.5290001699999998  4.6944782900000002 10.8623358299999992
  6.8413148799999997  7.9863638300000002 11.0309863099999994
  5.0966769400000000 11.0046304799999994 11.0284473300000005
  1.4084074000000000  1.0031239599999999 17.1968209899999991
 -0.1762643000000000  3.9518859200000001 16.7641789699999997
 -1.5202673600000001  6.9931595199999999 16.7361398900000005
 -3.6790301099999998 10.0337733000000000 16.9664673999999991
  5.1444504599999998  1.2193513199999999 17.0364024699999987
  3.5449085700000000  4.0531594499999999 16.9507791400000016
  1.4889186500000000  6.9488350700000003 16.8326662300000010
  0.1080041300000000  9.9767333399999991 16.8827142899999991
  8.4717895500000004  0.9779885200000000 16.7630841900000007
  7.0108033499999998  4.0652136099999998 16.7080136299999999
  5.0613290800000001  7.0313975700000002 16.7464096299999987
  3.3716838800000000 10.0923792799999994 16.9035374500000017
 12.1143029799999997  1.1640093199999999 17.1874996399999986
 10.3226475400000002  3.8539891800000001 16.9447295599999990
  8.6676499000000007  7.0060979000000003 16.8819655600000011
  6.8809713300000004  9.6882444599999999 16.7657719800000002
  0.0897948900000000  0.1414077500000000 14.1746464099999994
 -1.7039041600000000  3.0750535600000002 13.9240781200000008
 10.2467778200000001  5.8635960899999997 13.6953727799999996
  8.6325445100000007  8.8859427899999996 14.0403283000000005
 -3.5518461499999998 11.9013607799999992 14.0275218200000005
  1.8867650199999999  3.1130231899999998 13.9819521499999997
 -0.0016804700000000  6.0315466799999999 13.7475941299999995
 -1.7202685099999999  9.0813699400000001 13.9388505899999995
  6.8497466500000002  0.0551239100000000 13.8787009399999999
  5.0578943299999999  3.0531516800000000 13.9113333600000004
  3.4490760300000001  5.9799965300000002 13.8446653299999998
  1.7403660900000000  8.8281017399999993 13.9769482400000005
  3.3827621600000000 11.9298897999999998 13.8415099700000006
  8.5182278599999997  2.8687105499999999 13.8780940600000005
  6.8375914299999998  5.9541122000000000 13.7876130400000001
  5.1691547199999999  9.0259184599999998 13.8559274299999995
