Ca Si  O 
 1.0000000000000000
    10.2628755900000002    0.0000000000000000    0.0000000000000000
     0.0000000000000000   10.2628755900000002    0.0000000000000000
     0.0000000000000000    0.0000000000000000   10.2628755900000002
 Ca  Si  O  
  27  27  81
Direct
  0.6116576835557256  0.0426777092013838  0.6160976750181963
  0.9763430173277586  0.4635291871447114  0.0575492331384678
  0.0813638460953028  0.0132063941349990  0.1524300929385036
  0.4289976002719916  0.4596662892997225  0.5169377416178929
  0.5061285781405443  0.6244305315602096  0.0603942437540549
  0.7860754122227452  0.6028841902779024  0.8392637477153710
  0.3717488433473254  0.2023056463846309  0.4262121694490891
  0.1263681839097496  0.1738870577110835  0.6967746795028624
  0.6452750052288220  0.1421500521180926  0.1748021764726469
  0.7337402898401499  0.4897454632400938  0.2560919292991254
  0.2786396370999953  0.7493710990215755  0.8711400739098309
  0.0512918202489873  0.6543599219446448  0.5414171224499857
  0.8340450115502179  0.8949126830446165  0.8327559673750269
  0.8814483446349561  0.9843027172465217  0.3796832170309881
  0.0898216003805226  0.7660466037082693  0.1244754034867921
  0.2162884798255651  0.4754396442995369  0.7868740051636931
  0.0765059785743734  0.9118134218754571  0.6116896794614657
  0.1886264617575862  0.3013406167578808  0.2459656348616032
  0.6833461536680286  0.3319708535997171  0.7141256673851972
  0.9006992444697461  0.1734834632249498  0.9600132919471549
  0.4176691223049310  0.3214313494372195  0.9802252089855062
  0.2589493857442347  0.6121594444856756  0.3241091086830568
  0.5763990645822493  0.7189029785364475  0.6089868590134589
  0.2946668001068500  0.9012042656945041  0.3746163262220740
  0.3794357513009665  0.0332740007423202  0.8982546830230064
  0.9795722535890159  0.3133951933641242  0.4740199194015563
  0.8229538189305868  0.7394229758951995  0.3529595967751569
  0.6932832418754868  0.4071321700587817  0.0052053490789710
  0.6265915486947845  0.1068880987964894  0.8849556179799700
  0.5015217387040352  0.5410942187987685  0.7979064228332908
  0.1994337076437268  0.3928666341749935  0.4949960374604911
  0.3745636382599860  0.0990654267494633  0.1503571748939032
  0.1200535901653661  0.0934700554038383  0.4247287840307923
  0.0002314098011978  0.5784289147755323  0.2936538003965027
  0.8920278219995454  0.2438423235334182  0.2053159644703439
  0.8600368973195358  0.1094503718913346  0.6681334446537902
  0.7983704155961614  0.7037278242988037  0.0762986497432539
  0.6642486523604054  0.2751938163171284  0.4412685996518058
  0.0873460612611791  0.9698379935247757  0.8735553375250455
  0.1437573102257590  0.2620983355406728  0.9656600562961710
  0.5982968677884948  0.8578607986419136  0.9003135007310364
  0.3402749092469511  0.9535693163362219  0.6286111308107556
  0.2349841765937260  0.5477602208758725  0.0743965717312179
  0.8195666990444342  0.9284596774499144  0.1207480777811904
  0.9405744594045108  0.4244337244275218  0.7518707873180016
  0.3526276527727060  0.8258097299998548  0.1190808491521429
  0.3072728702930715  0.7054537509014079  0.6152048735884560
  0.0250260745877365  0.6861299523947557  0.8404076356926782
  0.8189960227316757  0.8129331985792881  0.6297021681035501
  0.5416228532884320  0.9312123562437143  0.3484809241461340
  0.4228381306919847  0.2607307071526139  0.6833680130385367
  0.4643037439373267  0.3948856453008995  0.2373149619365112
  0.5587236344935562  0.6820802414111696  0.3289865837689649
  0.7538658938376550  0.5367625507774473  0.5314194264728489
  0.4617198774792904  0.4175037739106024  0.6945466294987992
  0.6832767988372350  0.9838461015583646  0.0062215652367662
  0.4989535208815680  0.1995246071184227  0.8067838567650414
  0.9025896688278962  0.8126332582776636  0.1694337278817193
  0.0310238390018328  0.8347332075570839  0.8284588247649214
  0.4295152466132546  0.6723904844684958  0.4500939594845074
  0.7679430799764767  0.2075815215060987  0.5605655480814418
  0.6935742860349727  0.2500799125442775  0.9260873618365669
  0.9041822770454144  0.6032073346024065  0.1801159678678323
  0.9319330226821935  0.3867971549677531  0.2725625849665006
  0.7876001544709361  0.2372487114988013  0.3400355465090462
  0.6315199539508400  0.8081365692556348  0.4129617243075243
  0.4155277663265525  0.2436271898722296  0.2263693298848612
  0.9969062657223540  0.0813252029297960  0.5253763706590933
  0.4729075498809588  0.5504468684687622  0.2643870089045872
  0.2309800775827197  0.9114927427469672  0.9441890584196393
  0.8932571373010281  0.7249456319288774  0.7402651852666569
  0.2427239595915242  0.5511713749615862  0.5381875802315947
  0.0952139974250628  0.4678143116806505  0.3950925541717494
  0.5751834033486516  0.4152308972888952  0.1001391706434980
  0.4920483899191455  0.1093105728664494  0.0345603965369710
  0.9984511543708581  0.5380001980517041  0.8448415684243914
  0.3218659079545561  0.9719059821517333  0.1197701023675763
  0.2539181642754378  0.0934517057708969  0.2947434374969365
  0.8129512685635117  0.4022320541449729  0.8283731314334291
  0.4409865198414629  0.9487910025420079  0.4955905521212696
  0.6209563571256348  0.5436043252279160  0.4145075649309318
  0.4587848959786524  0.8392359085393531  0.9890437666311026
  0.3275114621164379  0.3913639695597245  0.3797609798366464
  0.6887932917054878  0.6886439095964916  0.2252973252694375
  0.2717133005799206  0.2627844843630225  0.8237426056530810
  0.3038485834358634  0.3184184852814727  0.6008658768122122
  0.1216112676271856  0.5555846331758952  0.1760610370996420
  0.9232717874152853  0.8055797127713209  0.5135894539280876
  0.6386013561721446  0.5430274245388178  0.6758635558983718
  0.1355819017581991  0.6757380248044106  0.7145974133356907
  0.0243898912936155  0.2312131896358689  0.0887006523675496
  0.2260420502671220  0.9940661221637200  0.7547429764760503
  0.2285144216583064  0.0394046889152634  0.5365703278490196
  0.3798976267235449  0.5396174426391931  0.9155715488898369
  0.4815448376686403  0.0499254186126210  0.2797104899914313
  0.9562657555317788  0.0205994351335599  0.7570159963324665
  0.8915649877813632  0.5389633637759026  0.6461341981443623
  0.7627775559929593  0.6844756002737435  0.5628200799421363
  0.5946378211917893  0.4362495755441580  0.8732555618946172
  0.8072507863266419  0.9730984705427964  0.5833238157766657
  0.7481710367298723  0.0914871618355066  0.7768347340942481
  0.0488499607740056  0.3410137119278867  0.8605265943791881
  0.7042196260317328  0.8477986402249664  0.7237867130765833
  0.7127785225349302  0.9061069676281635  0.2445443519207661
  0.7613083956326123  0.5436514874482660  0.0287083037708343
  0.2541423840839914  0.1946446083733536  0.0690775702952860
  0.9376286787863127  0.2543420776281670  0.6988807071761454
  0.3746439130321758  0.0988211813644328  0.6876813314269165
  0.7031074533370623  0.8012597578414180  0.9996694824983259
  0.2433316343065988  0.8197993511874970  0.2160723532652704
  0.7670629095095559  0.3806726716834341  0.5117564608419851
  0.0913828070676242  0.1035849290656752  0.9225903458506214
  0.1997362690430899  0.7862130208284051  0.5073823271397563
  0.4762095474256841  0.7847218169386383  0.2342343097622993
  0.5878189837824975  0.6789333046957456  0.8382070390078654
  0.0809439822898603  0.3863516355848176  0.6278691019385143
  0.1331769578627426  0.6300272875080229  0.9710454192497914
  0.8677693617057672  0.5763086825064008  0.3956500723789832
  0.8087740163281080  0.3287787190256683  0.0906471360625741
  0.0749940241651122  0.6957800099377410  0.3544158572422098
  0.5417937595792292  0.2462163326292451  0.5430173708263767
  0.0062990181877475  0.1895473128306722  0.3054838541602160
  0.3822619036542369  0.8197133801560583  0.7001254694153415
  0.8424848420090807  0.0825222836010234  0.1921175456829249
  0.5966816323844768  0.3200943031211392  0.3138349921281663
  0.9164000096779893  0.9730018299871060  0.9925584151020581
  0.6571518470487471  0.0359357313421355  0.4063445477272905
  0.5362344619438186  0.9596849814292644  0.7958684706222771
  0.4152909301709659  0.6167745847146140  0.6985140993996986
  0.9354368837282183  0.7160810949672635  0.9877410664392552
  0.3356480520290512  0.4371285738249898  0.1487333395610226
  0.3147611136539170  0.6698007444129993  0.0801647036237726
  0.1713933784517405  0.2368515869342230  0.4514803993643657
  0.0982324886586684  0.9373312192708749  0.3606047172203907
  0.1812570642298900  0.4239408079972642  0.9986873942023495
