Sc  F  C 
 1.0000000000000000
    13.1286234000000004    0.0000000000000000    0.0000000000000000
    -6.5643117000000002   11.3697213799999997    0.0000000000000000
     0.0000000000000000    0.0000000000000000   26.8280942399999986
 Sc  F   C  
  32  32  16
Cartesian
  0.0904492400000000  1.8167992300000000 12.1772127300000008
 -1.6545992100000000  4.7444207900000004 12.2647601099999992
 -3.2446047500000001  7.5840268200000001 12.2261393399999996
 -5.0200062499999998 10.4452793199999991 12.0515114800000003
  3.3124236800000002  1.8376108400000000 11.9260927799999994
  1.5197811100000000  4.8510007699999997 11.9865850399999996
 -0.0873557300000000  7.5643321400000003 12.2447292599999997
 -1.7204254500000000 10.4138191399999993 12.1885580400000002
  6.4846324500000003  1.8132186400000001 12.1132742899999997
  5.0194474600000003  4.7590496900000003 12.1767513899999997
  3.3626895700000001  7.5503457599999999 12.2220641899999993
  1.6809666400000001 10.3941774000000002 12.0727789100000003
  9.8517599600000008  1.9437112599999999 12.1721607200000008
  8.2141474799999994  4.8459275899999996 12.0850955399999993
  6.5822434100000002  7.5986314600000000 12.1656732800000000
  4.8389591799999998 10.4929482099999998 12.2591350499999994
  1.7801059500000000  0.9624600400000000 14.6708462900000001
  0.0623289100000000  3.7965702100000001 14.6708145000000005
 -1.5695627999999999  6.6335874500000003 14.8154003099999994
 -3.4350039799999998  9.5024588699999999 14.6917015099999997
  4.7850210999999998  0.8650207700000000 14.6936882000000004
  3.3869719699999998  3.8969805399999999 14.3389226500000007
  1.6330186300000000  6.5676602300000004 14.6065921299999992
  0.0754230400000000  9.5458529100000007 14.7202717799999991
  8.2279828699999999  1.0656693200000000 14.7196016000000007
  6.6005833999999997  3.7460419400000000 14.7314820100000006
  4.8195794799999998  6.6696686700000001 14.6930833799999991
  3.2827368300000002  9.3471788500000006 14.7074321399999999
 11.3948542499999999  0.8757058000000000 14.7114920500000004
  9.9369968199999992  3.8679211900000001 14.7116744599999993
  8.2353578400000007  6.7071658699999999 14.7498764199999997
  6.6268351699999997  9.5573111599999994 14.7659802399999993
 -0.2088368300000000  1.8779669000000001 15.8092836000000005
 -1.4476117200000000  4.7508572200000003 15.7655943900000004
 -3.3683582400000001  7.6853543300000000 16.0063826999999996
 -4.9256550800000003 10.4026848399999992 15.9522638899999993
  3.1051212200000000  2.0010792999999998 15.6292990100000004
  1.8331208500000000  4.6021724800000001 15.8287647699999994
  0.0802665600000000  7.7844087399999999 15.9804458300000007
 -2.0229980500000000 10.5361151199999998 15.8838019300000006
  6.5741267399999996  2.0726382299999999 15.7935138100000003
  4.9412104799999996  4.5535917599999998 15.7520776999999992
  3.5728629500000002  7.6656922500000002 15.8958862399999994
  1.5427422500000001 10.4797746299999996 15.9814929499999998
  9.7735392500000007  1.7773047500000001 15.7974449700000008
  8.2615333999999994  4.4847935899999998 15.9321922699999998
  6.4427144600000004  7.5543805300000004 15.7996132899999999
  4.8948126500000004 10.3342783199999992 16.0139822500000015
  1.6684381200000000  0.8002122900000000 10.8876365400000008
  0.0103369000000000  4.0660707000000000 10.7446501500000000
 -1.6072055599999999  6.6044008400000003 11.1425444700000007
 -3.4058386199999999  9.4425691599999997 10.8632723000000002
  4.9071534799999998  0.8776056200000000 10.9295542300000008
  3.1255770300000001  3.6574834200000002 10.9445076100000005
  1.6399807200000001  6.6595797799999996 10.9679756000000008
  0.0639447100000000  9.4317809300000004 10.9807030999999995
  8.4588238300000000  0.8265701800000000 11.0979775699999994
  6.4560230299999999  3.7352982300000002 10.8713619799999996
  4.8043905599999999  6.4309823699999997 10.8246229199999995
  3.3235414799999998  9.4327290599999998 11.0289679500000002
 11.4214062599999995  0.9118234000000000 10.8730880100000000
  9.8397556200000000  3.9340359999999999 11.0700780000000005
  8.5598487100000007  6.3205978299999996 10.8138136399999993
  6.4216275400000002  9.3687929800000003 11.0520490400000000
  0.2065451700000000  0.0993440000000000 13.4131906099999991
 -1.5266213500000001  2.9197029900000002 13.3880769199999996
 -3.2299975900000000  5.8498842700000004 13.5472779299999999
 -4.9326142800000001  8.5973127300000005 13.4534460300000003
 -3.2331435399999999 11.3242183799999996 13.4092942399999995
  1.5207021500000000  2.8563822999999999 13.3801491499999994
 -0.1095829700000000  5.7459051499999996 13.4765644499999997
 -1.7329959100000001  8.4324568600000003 13.3381695699999998
  6.4487771900000004  0.0118143700000000 13.4149763300000000
  4.9614041499999999  2.6864914099999999 13.3893969700000000
  3.2743177999999999  5.7031952199999996 13.3485915500000001
  1.6495359999999999  8.5039999099999992 13.5073803199999993
  3.3189348399999998 11.1789696599999999 13.5799383700000007
  8.3244859499999997  2.9754492199999998 13.4451646999999994
  6.6632235700000004  5.6020830699999999 13.4205514099999998
  4.9495766699999999  8.5192555199999997 13.3354513200000007
