Sc  F  C 
 1.0000000000000000
    13.1286234000000004    0.0000000000000000    0.0000000000000000
    -6.5643117000000002   11.3697213799999997    0.0000000000000000
     0.0000000000000000    0.0000000000000000   26.8280942399999986
 Sc  F   C  
  32  32  16
Cartesian
 -0.0389883400000000  1.8982258999999999 12.0435330000000000
 -1.6700875100000001  4.6826837000000001 12.2359697100000009
 -3.2857832199999999  7.6532594999999999 12.2272763799999993
 -4.9311727999999997 10.4726972800000002 12.0940165600000000
  3.3658082999999999  2.0127691300000001 12.0459747600000000
  1.6801723000000000  4.7909250099999996 12.1564583400000004
 -0.0822338000000000  7.6278479800000003 12.0859740700000007
 -1.5961873700000000 10.4041339100000005 12.1223359399999993
  6.6681255500000001  1.9320865899999999 12.2451545300000006
  4.9077369500000003  4.8232154100000004 12.2001249800000000
  3.2016055899999998  7.6234413500000002 12.2705388299999996
  1.8316972199999999 10.4347748399999993 12.2430382200000007
  9.8584757300000003  1.8187782800000001 12.1358355800000002
  8.2008395400000005  4.7769373799999997 12.1598547900000007
  6.5413346900000002  7.6831985999999999 12.0800917400000003
  5.0235447600000001 10.3685899100000007 12.1323088200000004
  1.6292116600000000  0.9159035200000000 14.5981687400000002
 -0.0566434900000000  3.7610987499999999 14.5662267300000003
 -1.7477578000000000  6.6454648699999996 14.7131402300000005
 -3.3554596800000001  9.5073041099999998 14.5485436799999999
  5.0121073799999998  0.9179487400000000 14.5993727300000007
  3.2704580299999999  3.7869031700000000 14.7496742600000008
  1.6065268399999999  6.6057970299999997 14.6871469099999992
 -0.0208826200000000  9.4156560700000007 14.6328643599999992
  8.1655466600000004  0.8971259900000000 14.7186551100000003
  6.5422529899999997  3.8601481099999999 14.7935160499999991
  4.8551146100000002  6.7297690899999996 14.6684098499999998
  3.2881575600000001  9.4837591000000003 14.8042658599999992
 11.4790069700000004  0.9953403600000000 14.6034247700000002
  9.8459827999999998  3.7228729999999999 14.7676761100000000
  8.2264398900000000  6.7505155300000004 14.6678382700000007
  6.4432467800000000  9.4680683000000005 14.6565212799999998
  0.1214562900000000  1.8839406900000000 15.8275035299999995
 -1.4307965899999999  4.6569377599999999 15.8186332499999995
 -3.3413523100000000  7.3732155199999996 15.8123081499999998
 -4.8715714200000004 10.2366887599999998 15.7196639800000000
  3.2816322699999998  1.8021727200000000 15.7612093699999996
  1.5560343999999999  4.7525636000000002 15.6995126500000008
  0.1061291900000000  7.4676361199999999 15.8684463800000000
 -1.6320148900000000 10.5099519299999997 15.6921184999999994
  6.4963572200000002  1.8873724500000000 15.8017275599999998
  4.7256855499999997  4.8603769300000002 16.0577563499999982
  3.3188433100000001  7.6156806399999999 15.8380310699999995
  1.7127447200000001 10.2615146900000003 15.8199622800000004
  9.8446866699999998  1.8021434800000000 15.9723545799999993
  8.1732078399999999  4.5991081300000003 15.9058388900000001
  6.6117533499999999  7.5420787599999999 15.9048815599999998
  4.9157328199999997 10.4100527100000004 15.8968848699999992
  1.5623383600000000  0.9814259300000000 10.9678036100000007
  0.1087215500000000  3.7746001200000001 10.9870382299999996
 -1.7127816499999999  6.5601946099999999 11.0426973700000008
 -3.3233314599999999  9.4208425899999995 10.9366540499999996
  5.0186992799999999  0.9200596500000000 10.9401575100000006
  3.3572276699999999  3.8217746899999998 10.9843360000000008
  1.6443298799999999  6.5501183799999998 11.0037102200000003
 -0.2489802100000000  9.4412305100000005 10.8993994300000008
  8.2711375700000005  0.7656112000000000 11.0076160699999992
  6.5637866000000002  3.8707732600000000 11.1185977900000008
  4.8312890299999998  6.6285798800000002 11.0734236100000007
  3.1863088199999998  9.3599523900000001 10.9078180699999994
 11.5733519699999992  0.8564793900000000 10.9919256200000000
  9.9531168200000000  3.7186918400000000 11.0522661600000003
  8.1951231700000005  6.6821859000000003 11.0328832800000001
  6.7094085100000003  9.5375516499999993 10.9506320499999994
  6.5373466699999998 11.3223030599999994 13.4444879200000003
 11.3109032900000006  2.7741980900000001 13.4365152299999995
 -3.2154902399999998  5.7075744899999998 13.4231323299999996
  8.2109893199999995  8.4565595400000007 13.3704462999999993
  3.2685501499999998  0.1142239100000000 13.3271669199999998
  1.6565727800000001  2.8863379600000001 13.3177546200000005
 -0.0293632200000000  5.6419789700000003 13.4021670000000004
 -1.6196691200000000  8.5600799700000003 13.4058913799999999
  0.0268039800000000 11.3515802699999995 13.3191145599999992
  4.9456838400000001  2.9207984499999999 13.4922476000000007
  3.2674342599999999  5.7555761399999996 13.4845862800000003
  1.7089344000000000  8.5365553100000007 13.4525783800000003
  3.3971777599999999 11.2847020800000006 13.4408319899999995
  8.2507149299999991  2.8979603300000001 13.4519977500000003
  6.5353423199999998  5.7317360099999997 13.4070440800000004
  5.0718083099999998  8.4779417800000001 13.3621435200000001
