Ca Si  O 
 1.0000000000000000
    13.6708636499999994    0.0000000000000000    0.0000000000000000
     0.0000000000000000   13.6708636499999994    0.0000000000000000
     0.0000000000000000    0.0000000000000000   13.6708636499999994
 Ca  Si  O  
  27  27  81
Direct
  0.5440688072402800  0.5330111686104045  0.5574655870406550
  0.8278164620565140  0.5424921687372692  0.6607282942215579
  0.6664168009604866  0.2602873798686450  0.6099461141213269
  0.2002215339189635  0.1352442491809945  0.9476610016514941
  0.7566119050569274  0.7494285212917036  0.8449579306571462
  0.3937454053972662  0.3501365899439718  0.6596184016508716
  0.5223392737151614  0.2257756363475983  0.9767840936662404
  0.9284647886894842  0.5540876519531376  0.0119952611772264
  0.3990570529902110  0.5931740252562610  0.8716733093889062
  0.0219415501229141  0.7764091480789512  0.5840395840682677
  0.7507098726714314  0.6432241894241993  0.3993886662749357
  0.6812782343857260  0.9799151665154674  0.4374055767866575
  0.0834999579562042  0.6715838424736246  0.2395745838632514
  0.4687879722946400  0.9449330474450310  0.8351740191630103
  0.4433007025126756  0.2775715322125973  0.3036176167260654
  0.7037036559135019  0.8877476581371653  0.1657535184326120
  0.8965419686560915  0.2786873812467583  0.0173069980110584
  0.9941659633186379  0.8861800161396534  0.0068808834912197
  0.1000612971514788  0.5468953572658886  0.7188588710706657
  0.5263789153511161  0.7885711426870973  0.3620811074361056
  0.2731231139153378  0.9620248278900800  0.7072512284181841
  0.6813795293759660  0.4904915352586375  0.0473486457455817
  0.8229185805682439  0.2130702027739118  0.2814475645801646
  0.0368082728994229  0.9774203102376785  0.7875277974848356
  0.2107798566186417  0.1664624004936221  0.3013396560355570
  0.3097759116337906  0.5494907638845481  0.1468947289222653
  0.9057935114435876  0.0524359863687178  0.5317854069885336
  0.2248418211676042  0.7681324032516410  0.7068071833193947
  0.3091055560341281  0.3786773917535195  0.9754919829077514
  0.4388080990040450  0.1176656699373927  0.6374630142697678
  0.8415370158417168  0.4311046903024301  0.2327349530693330
  0.6237538533273280  0.4816593266219871  0.7931058313203205
  0.1493844735990766  0.3119679626092972  0.7772042690221697
  0.4932803685742269  0.4855299335825064  0.3156586306820491
  0.7584705754855511  0.1098730817931901  0.0628089140513080
  0.1792069486407320  0.6257832752212403  0.9464577484832132
  0.7176641038329719  0.9347080262921064  0.9321730957356159
  0.3408608950613007  0.5121407132167543  0.4442541024099820
  0.7579005771153310  0.1292613104220376  0.8292796717345652
  0.1981368119343360  0.9179051134783281  0.9589891923177802
  0.4448242792619763  0.0202924772788587  0.4090922953503380
  0.8856688765233937  0.1763841474638656  0.6825832667857821
  0.7303404009884921  0.4174650033906234  0.4237676315351152
  0.9033972100219141  0.3919300094840753  0.7819941748888704
  0.9386605337110505  0.9725561837492250  0.2934354655786505
  0.8038699822743094  0.7856137530857460  0.5931461396734800
  0.5877345079072602  0.6509621570250976  0.1797705106948382
  0.1347548879986086  0.4902059417438488  0.3258838127611638
  0.9231510000467309  0.7178347528906852  0.7942147780838997
  0.9273251869496921  0.7925971524118011  0.1897150082394392
  0.5975074654482418  0.7557072965174370  0.6290073882786477
  0.6188685679708320  0.1382759508394336  0.3167934865622042
  0.2111429887606260  0.3315510414003727  0.4291102003639690
  0.1877789352393987  0.3198402538379497  0.1501074286553944
  0.3944317395046216  0.4437180909195887  0.9853629225539090
  0.5764420435866172  0.1945508263481218  0.2337310349811001
  0.6367467925115324  0.5864304739810642  0.8711891951317942
  0.6002447511792717  0.9778958295732838  0.8900621805265391
  0.7495737330391705  0.1613137916125731  0.9576507757796269
  0.8942710967642487  0.4049764434597371  0.9001346480403234
  0.6555684687850720  0.6469123631410075  0.6507730212055769
  0.2580952689115585  0.6126422020162566  0.8525173148076859
  0.6025908428982101  0.4155808151886586  0.9208023291198578
  0.2021424396256048  0.6708736561789935  0.6305070097016147
  0.1857914719235752  0.2634357617925624  0.5217971806777548
  0.0057793239712401  0.8759504224884871  0.2710929203071966
  0.9725155389140320  0.0924105895826121  0.6433953790476141
  0.9043509683457344  0.6916606413523845  0.2577154823718837
  0.6686085673892301  0.6418896892443222  0.1001410060877902
  0.3336181595227892  0.7943438664901029  0.7401927785301261
  0.7060242576554409  0.8135249560476745  0.5421389869542003
  0.1436511964626317  0.8065532114351825  0.0097664261321193
  0.7145178271162115  0.4596578468544670  0.7282823452050157
  0.6540158697289034  0.1380167850624419  0.4464045985858399
  0.6932658925319617  0.0341341419201412  0.2848919804711826
  0.2993466378402508  0.2507158572969894  0.3943592327467914
  0.8700702431480984  0.6925375625409006  0.5338725823660746
  0.9662543792542324  0.8232641446906686  0.8548358157313639
  0.1090911092511701  0.3082160335934592  0.3576287252341955
  0.8205839965348495  0.3284434432933577  0.1624772338359179
  0.7724260222579281  0.9926015486227163  0.8426506952982449
  0.5448380578355048  0.6059139994421641  0.3121025817560546
  0.8437296505404032  0.5157678739631055  0.1435849343724528
  0.8747370404795165  0.6430013615123723  0.8850058576950257
  0.0101243435340678  0.0482713116665457  0.3297755134877671
  0.7429311878185545  0.3964720743886580  0.5333268560541894
  0.4456382702639274  0.0533834020062076  0.7271887347073350
  0.9326740582333289  0.8975484939461013  0.5507738883782958
  0.0770271547547766  0.5697994676437286  0.9001902041499771
  0.4923332001778834  0.2211390397416479  0.6449432827164507
  0.2181449026448303  0.5792147894035942  0.2851583959730299
  0.0146443937358705  0.5072382438691062  0.3263117966947173
  0.8747826542765643  0.2867477286264939  0.7488956288434638
  0.7900108447062157  0.4947123278491626  0.3211983253157528
  0.3587249522454275  0.0124136312338979  0.3417462326895492
  0.5109392953385210  0.7916338753038474  0.5483467783690462
  0.1194101961509944  0.2270186821737484  0.1702948233266887
  0.5426519443049233  0.4074571455476406  0.2404330343825790
  0.8226870838551593  0.8126248724600513  0.7055255027724602
  0.0942845304436929  0.9824986894664844  0.9931450753661786
  0.3159611016967461  0.5160516519378788  0.5599257622615526
  0.3160127963093246  0.9314507339117526  0.9477569334107141
  0.9371404095600062  0.4961948786607933  0.7373442357462179
  0.5251080885442084  0.9429865866594317  0.4111990942137734
  0.1625637558019240  0.4203774843442316  0.2153679288579548
  0.9869981060048097  0.6907961063601129  0.7059525577230084
  0.6793480300712383  0.3493650520024022  0.3443320276257748
  0.0611057583037192  0.3557827584653001  0.7457072655391455
  0.6818685555392837  0.0121067566934588  0.0555469149163813
  0.6280469405457058  0.7654210888132148  0.2213924370462140
  0.2161490923801292  0.6402966187143562  0.0617972383917383
  0.6773032689854969  0.1975286996590007  0.7713175048746830
  0.5045665874957359  0.1341687889630879  0.3749800489012997
  0.2165632030131469  0.4026293539984214  0.0428773342348419
  0.1390859991497319  0.2171283509217064  0.8387233881891580
  0.8050438708018276  0.1719974714252965  0.6015004150816763
  0.5298058319819465  0.8018214540527584  0.7273495694619118
  0.5482483859020860  0.5263036552924730  0.7101501557291883
  0.8229518323079756  0.9445910076061654  0.3206609313230916
  0.1858960285950917  0.0157729069296950  0.8455807033083825
  0.2596672954162629  0.3837962007616103  0.7735198990153047
  0.4848433134654225  0.4375410386014640  0.4323740614588019
  0.8583461506471831  0.1080565425725682  0.7678308838959126
  0.6631938509605427  0.5115662206169396  0.4457563037723663
  0.3628354292012854  0.4928147974030888  0.3148702218239153
  0.2894498000497577  0.2673765501274676  0.1458035206137105
  0.8446557017632168  0.8578324464526423  0.1499162702862595
  0.0031267058976190  0.7439132903647971  0.0875994136625011
  0.3925174639570047  0.0596695154662010  0.5380340765815480
  0.4783821247460105  0.6469878411814897  0.1494113021893829
  0.8485775344559157  0.1393319111920190  0.1000599497603796
  0.1696050761211418  0.4577057419484979  0.4510179625703458
  0.7152126274041216  0.8324796092893517  0.9603344065244921
  0.3298931146899414  0.2626967243580108  0.9560818163818056
  0.1429373988380025  0.8576128758331959  0.6994223462977777
