Sc  F  C 
 1.0000000000000000
    13.1286234000000004    0.0000000000000000    0.0000000000000000
    -6.5643117000000002   11.3697213799999997    0.0000000000000000
     0.0000000000000000    0.0000000000000000   26.8280942399999986
 Sc  F   C  
  32  32  16
Cartesian
 -0.0029900100000000  1.8164894000000000 12.1028706699999997
 -1.6494919200000000  4.6804972700000000 12.0209744199999999
 -3.3522705099999999  7.6547473799999999 12.1142542599999992
 -4.8311845199999999 10.4286825099999998 12.1740494500000000
  3.3594603400000000  1.9492751500000001 12.1811601199999995
  1.5977189700000001  4.8421173199999998 12.2574352199999996
 -0.1017835300000000  7.4560244300000003 12.2410343000000008
 -1.6094856900000001 10.4636855799999999 12.0267268699999992
  6.5573979700000002  2.0160582900000001 12.1438985000000006
  4.7093710099999999  4.8224399199999999 12.0609842700000005
  3.2055985900000001  7.8861489000000002 12.1386597300000005
  1.4303611100000000 10.4923813799999994 12.0561146099999998
  9.8354958400000001  1.9358517900000001 12.2291242100000002
  8.1612310099999998  4.8242993099999998 12.1063638400000002
  6.5802083600000003  7.6137726800000003 12.1414747300000005
  4.9593814099999998 10.3656871299999995 12.0983802399999991
  1.7176114000000000  0.8329157100000000 14.6192895400000005
  0.0336148700000000  3.6188994100000000 14.7107104999999994
 -1.7244817200000000  6.5820518699999999 14.6169698900000000
 -3.2325422599999998  9.3246888699999992 14.7892112400000002
  4.9248682900000000  0.9080324600000000 14.6860504100000000
  3.2887131799999998  3.7384173900000000 14.8074098700000008
  1.6449034499999999  6.5747784200000003 14.8049141800000008
  0.0139407500000000  9.3551308100000004 14.8212661099999998
  8.2620403699999994  0.8436076700000000 14.8637151500000009
  6.6255941399999996  3.7805288799999999 14.5928778000000001
  4.8888573600000003  6.6480044800000000 14.5162289999999992
  3.3208377100000002  9.4403260299999996 14.5893670800000006
 11.4427384500000002  0.9705686500000000 14.5765788900000004
  9.8022318100000003  3.8743166699999998 14.5828185999999995
  8.2663158800000005  6.5901756400000000 14.7870905799999992
  6.5218814700000003  9.4039583699999998 14.7496440399999997
  0.2005702400000000  1.7503906499999999 15.9356586199999999
 -1.6495345699999999  4.7977181199999999 15.6466120800000006
 -3.5223092100000000  7.5585340399999996 15.8457518900000007
 -4.8887158700000004 10.5090816500000006 15.8093224699999997
  3.2873501300000001  1.9291355800000001 15.9129199499999991
  1.9348961700000000  4.7649297800000001 16.1579824400000014
 -0.0492872400000000  7.7320424299999999 15.9927701599999992
 -1.6125435100000001 10.4020298699999998 15.9032823000000008
  6.5478518399999999  1.8826473100000001 15.8251155000000008
  5.0051192999999996  4.7942375899999998 15.8038697100000007
  3.3898679500000002  7.6952864300000003 15.7969882899999998
  1.7731951399999999 10.2872259400000008 15.7926530700000001
  9.9485852799999996  2.0941360900000001 15.9433108400000005
  8.4249782000000000  4.7501015500000001 15.8842229499999998
  6.3591489699999997  7.5122943500000003 15.8492935799999994
  4.8804916299999999 10.1637253399999992 15.7915656500000008
  1.7660368399999999  1.0313844200000000 10.9827545200000003
  0.1158715100000000  3.8164365000000000 10.9254324100000009
 -1.4058150199999999  6.4055117499999996 11.0014928399999992
 -3.1732531200000000  9.5712779900000005 10.9052027799999998
  4.9799104600000001  1.0662255800000000 11.0388699900000002
  3.1790470000000002  3.8166639000000000 11.0373257500000008
  1.5837652400000000  6.5915992599999997 10.8842151999999999
 -0.2115150900000000  9.1748628900000000 10.9918257100000005
  8.1911584400000006  0.8776842800000000 10.8875776999999996
  6.4691367099999999  3.8025825000000002 11.0836861300000002
  4.8224061499999999  6.6301394399999998 10.9961574700000000
  3.3270784500000001  9.6442612600000004 10.8800169300000000
 11.5342427000000001  1.0282401500000000 10.9643638499999998
  9.8872299899999998  3.8156876099999999 11.0078592799999999
  8.2420481700000003  6.8514372300000002 11.0556149000000001
  6.6026713600000004  9.6608825599999992 10.9138298999999996
  6.6026385300000001 11.1834902199999995 13.4256352700000008
 -1.5562232000000000  2.8573136200000002 13.2795939700000005
  9.7972162399999991  5.7016111100000000 13.4531517199999993
  8.1519700099999994  8.5162374599999993 13.3884403800000005
 -3.2235262100000002 11.3133614100000006 13.4229403099999995
  1.5116666900000000  2.7386046999999998 13.3935712999999996
  0.0908276800000000  5.6164358200000004 13.4601506900000008
 -1.6676909200000001  8.5018773700000008 13.4097059400000003
 -0.0011101200000000 11.3189935800000008 13.4873345800000006
  4.9066718600000003  2.8538767900000002 13.4971615899999993
  3.2385993100000001  5.7170997000000003 13.4010323000000007
  1.5241623300000000  8.5931367900000009 13.2859791099999995
  9.9234837900000006  0.0465096700000000 13.5391881999999999
  8.3163065100000004  2.9032385199999999 13.4376999900000005
  6.5702968400000001  5.7851212900000002 13.2762974699999994
  4.8859552600000002  8.5784132300000007 13.3102563400000005
