Ca Si  O 
 1.0000000000000000
    10.5648966099999999    0.0000000000000000    0.0000000000000000
     0.0000000000000000   10.5648966099999999    0.0000000000000000
     0.0000000000000000    0.0000000000000000   10.5648966099999999
 Ca  Si  O  
  27  27  81
Direct
  0.7036897032161302  0.1395360659378947  0.4713565994849807
  0.7531384881200461  0.4167447853519506  0.3530785437568045
  0.4337176102284640  0.0258516651967501  0.9405508427403342
  0.5406055781552982  0.5879927243320179  0.4899147157863195
  0.2171453630533920  0.5747229200759779  0.1899566057371952
  0.7401535072854821  0.7099261210848707  0.3195895553586492
  0.8662960962000366  0.9239263345711056  0.5485124174821433
  0.3094045687968167  0.8114234569873373  0.4191138781054290
  0.0373914477900414  0.0733766896749593  0.0300838940249695
  0.1820173429979264  0.2375754957814017  0.4844126609962159
  0.1176970221197460  0.7411908302621809  0.5688609933306296
  0.0308367229729094  0.3899302001782676  0.2286614615531008
  0.4591533006966171  0.7234850611566942  0.9864973330770721
  0.8312485047593855  0.2637973643170371  0.0181642061521320
  0.9727003244189818  0.3994529814901804  0.8129076541904749
  0.1842037912759091  0.5723383515439817  0.8813284458635133
  0.9658503151220144  0.7940532188511403  0.7821300136698640
  0.6615929628108306  0.5289396930501529  0.1082304174105874
  0.9615020482438966  0.4754751793070316  0.5499310342990664
  0.4178095690801086  0.2792558800061934  0.6160059137578252
  0.4428054464415625  0.9893661704276726  0.6763703019333193
  0.0039316428293944  0.7994473643978235  0.0899059853648677
  0.5795046961656920  0.9359007518011101  0.2380510972175051
  0.2737878047251425  0.1891573153785932  0.1874231242476873
  0.5709135112870736  0.2888580932359924  0.8752004710815623
  0.0050571512407825  0.1059621671016050  0.7568540919209242
  0.6363804586252360  0.8183165249167546  0.7688066026421815
  0.6701860767192118  0.3687370699219744  0.6068661309881006
  0.3458362324664529  0.7371074358294171  0.6930360324652529
  0.3942939504071493  0.3987463953042887  0.0769737575311681
  0.1683201573706645  0.9849390026354456  0.5972629854254674
  0.4914364221118488  0.3439849157217640  0.3514641985691898
  0.7350773383479424  0.0967916580491742  0.7286872313272927
  0.9394005380616782  0.2091238732907960  0.5309871792488844
  0.8109080880063624  0.0444850032469934  0.2096803775536427
  0.2577592399174459  0.2052620768619145  0.8201444831744549
  0.9902601734973344  0.1620604804006691  0.2711574997608992
  0.2188330397679112  0.8840814335238441  0.8865922825154842
  0.7277354974513092  0.8129535514687826  0.0529350868867613
  0.9085171918213406  0.5468056956214739  0.0562241072418786
  0.5708387788945907  0.1998942713742279  0.1613602993886752
  0.4957555121781737  0.6430688212858905  0.2362918239670308
  0.7842352817875802  0.6457867409267529  0.6180147682486408
  0.2705061360747192  0.4992670505651072  0.4263063157415982
  0.1452883276251958  0.3075766540795329  0.9973632538936886
  0.3039872729999201  0.8620708196405152  0.1420380951555758
  0.1703713568097095  0.4188731914149798  0.6743059902031545
  0.7149895762207559  0.5562553337661106  0.8359719736055232
  0.0935309011036313  0.9486902096621654  0.3108373731638440
  0.4588257177464229  0.5001687867913740  0.7702494497009564
  0.3880657238159191  0.0556398563752722  0.4029475021999293
  0.7392130721476129  0.9916440933348615  0.9402597031188553
  0.5849918137533009  0.8536683995055206  0.5058642708288652
  0.0041944414257737  0.6530513221936775  0.3334488580480297
  0.6305596718944134  0.9747472729882209  0.6394172957268534
  0.4302761747518891  0.5521000219234516  0.1167157782531295
  0.7768636942676148  0.4838820263665600  0.7002411772773610
  0.0160268979669646  0.2948393226159551  0.6364683515819092
  0.6693101391363261  0.1087030590448911  0.2737647623794399
  0.7494030365149026  0.5379381653977209  0.5105489158213353
  0.7057940901136751  0.7582664531158152  0.5421679181013774
  0.6851157135933392  0.9116186400616372  0.3960535672483027
  0.2414305850930613  0.1900965294917354  0.9651547806296989
  0.5972726457187734  0.7339107732167386  0.1497794013906588
  0.2309057835635554  0.9757377322786692  0.0285819370645029
  0.2441837090538267  0.2545440574832090  0.6504011722647610
  0.4766295796244427  0.1870272926409642  0.4311712748507437
  0.0343343331591770  0.2313334914879020  0.9030141668371708
  0.8215386766572438  0.6692357635859534  0.7683437509759029
  0.3668686077184432  0.4394513833297229  0.9147657555732578
  0.1342062930041300  0.9236332015557699  0.4490484502715830
  0.5897422265450831  0.3810258319224574  0.4784312328447861
  0.4278334172926658  0.9149632340793915  0.0960464259574046
  0.8000113225906903  0.6655307344271304  0.1153971690405402
  0.8104483930202891  0.9719340026745421  0.7965757840009757
  0.1632749825840463  0.8451997506107162  0.2148221940810834
  0.1964933388969530  0.3656133980851139  0.8426484005128375
  0.6663538925062893  0.2163366528203062  0.6444147634682816
  0.3858083188567994  0.5690348350697205  0.3667272319856617
  0.8360953349641915  0.4385720969208803  0.1488703219784751
  0.8418550761378442  0.8483739340635157  0.9722280689692429
  0.4605765545679107  0.0959921528280815  0.1738657478447392
  0.2325294217905271  0.0572480103049489  0.7472621050098474
  0.8678154702736841  0.1046439686833812  0.6364404459609757
  0.4156592423103703  0.1648362974372733  0.7991741662675865
  0.2810382126399248  0.0574180517228933  0.5310263694099701
  0.6246489808289757  0.5582595341650012  0.3064167563112575
  0.5383043639648074  0.7613271295420656  0.3755372983247775
  0.0402532666147880  0.9165540806934598  0.6635619484779796
  0.6616562857210962  0.1807194599701814  0.0456019521803915
  0.9495389865438540  0.8087033470742124  0.3078963230857401
  0.8082694545176434  0.4924932900029582  0.9431654324537683
  0.3948540637919219  0.3376007396630832  0.2460872610470345
  0.6713234631455612  0.6931321943149618  0.9330512151599750
  0.8881776903635974  0.5575619277167730  0.3756702631849040
  0.3573488827544712  0.3773517013149455  0.4675710943848035
  0.4084409662765266  0.8551268217285470  0.8245440842037735
  0.0685528734199321  0.5446984700780712  0.7036799605746450
  0.2408251991403066  0.3705134933639450  0.1087928337047872
  0.3507167497022955  0.7367922183575444  0.2320945969011239
  0.0476093471207193  0.4565403797169767  0.0227204996755761
  0.8025241185961781  0.2207290677878201  0.8116995704324266
  0.8880080076808249  0.1140163178558545  0.3904326802493905
  0.0070160525688287  0.6141777501029422  0.1943292817514851
  0.6182760221067606  0.3365488221280379  0.2322329778104663
  0.0600252509238706  0.0945169457744462  0.5293610790953116
  0.8233107110359125  0.3183685874234031  0.5277182565821626
  0.4741892131020107  0.2852470242962463  0.0469847939193415
  0.9927479631057176  0.6533002493812384  0.9688238539231668
  0.9295801438041711  0.7097906337201723  0.5424157103985139
  0.8605335088082798  0.2125557128381591  0.2029056430113044
  0.3232525916786989  0.9965577240040782  0.2837216312332658
  0.7668512820401372  0.9052065527028381  0.1821811713877245
  0.2463449351256831  0.7576973590468483  0.0043433704743089
  0.8317884807014689  0.0620906170893423  0.0342079391158377
  0.5749165168593166  0.6028642035144346  0.7005429814613208
  0.1989171231463665  0.7869301439382472  0.7611999943651130
  0.1828582267593057  0.4317589540518940  0.3234337084534896
  0.3676045742202488  0.6299792166162997  0.8023608723228197
  0.9769799167017121  0.0082362150063672  0.2128904042346326
  0.4771477351920815  0.9392212660754095  0.4382661620765260
  0.3490082691874067  0.4395666064166056  0.6952944322282393
  0.0646276139942273  0.2285966809854091  0.1118379822933260
  0.6202628574516642  0.9100019209747856  0.9985143867867914
  0.1328717915394725  0.6267765577310274  0.4252947734241954
  0.0833837814528315  0.9339781262658283  0.8833482555017641
  0.6195015485343213  0.0522852281845473  0.8423971798811575
  0.3048164784643359  0.8518823706690303  0.6190748439326185
  0.0035117570355476  0.2831416577393274  0.3938722217178423
  0.5934309507644108  0.4879902672327241  0.8876009388604893
  0.3082450666784140  0.6478285167051909  0.5732452700263576
  0.1374871287074526  0.1047909270547987  0.3000363692153538
  0.1444116280850192  0.4462678778642587  0.5383521372671530
  0.5558610885450019  0.3930774860654315  0.7056027574320011
  0.4845130453198065  0.7813883074053102  0.6188443901866069
