Ca Si  O 
 1.0000000000000000
    13.6708636499999994    0.0000000000000000    0.0000000000000000
     0.0000000000000000   13.6708636499999994    0.0000000000000000
     0.0000000000000000    0.0000000000000000   13.6708636499999994
 Ca  Si  O  
  27  27  81
Direct
  0.6138648636145237  0.2234672562183004  0.0599321989434076
  0.9238845060092454  0.1356371811959371  0.0567463826617860
  0.7644887717097522  0.6984078975873628  0.7758403412940191
  0.6443803665615523  0.5174569976784166  0.2891984238318404
  0.8084447327510286  0.7344891264422786  0.0468763471282226
  0.0613378848233923  0.2626264530112551  0.3246556423668230
  0.2004774826351224  0.8530372541606031  0.8270252260178165
  0.9862390647133694  0.4331174161041392  0.9448513027924174
  0.4152285462959760  0.1806742619366261  0.1446392086574574
  0.6706464444914568  0.0236213869341020  0.3512927363590522
  0.3748104546416129  0.2005963785616427  0.6886597950964131
  0.9415541116892056  0.8059192975712255  0.3145380299363896
  0.5961102545266042  0.3746401369455543  0.5011941399912946
  0.4276249138071098  0.5418307357633546  0.1567408222961832
  0.6282506782225131  0.9314167792171638  0.8223661297360683
  0.3352971843882007  0.2962404683189127  0.4019652715942346
  0.8436561109290268  0.6429954913638540  0.4094421554705507
  0.0963943027842283  0.1488981268568208  0.7233193661469955
  0.9414504737599368  0.4498675034331134  0.6023395061803576
  0.8123284478811988  0.2700687282474652  0.2758083012553490
  0.5518591285196528  0.5452942609079420  0.9663134384344474
  0.7812745970880925  0.0728428397426084  0.6779277576951037
  0.0127581047156446  0.6656874015417453  0.7978307581174654
  0.0111311460560138  0.8988890273951347  0.7155652459455260
  0.2749493138277332  0.9841821207835688  0.0732623589585725
  0.5670002436166496  0.8191878162723100  0.1198469498304154
  0.1992804404862893  0.8431226567020877  0.5238125047059482
  0.6104742190154169  0.2644796804772462  0.3213568156683356
  0.7194659578072816  0.1789191914001717  0.8633413515173198
  0.0232016643659525  0.5849257402256368  0.3750995870696143
  0.6388011250481603  0.4607968348802894  0.8408011252456608
  0.2295385368721749  0.5269334721219314  0.3501940230381861
  0.0668023757226194  0.0223176916843875  0.9204461168040398
  0.8227818898625326  0.8783742576497718  0.9213058861866419
  0.7456368332661997  0.3367030209536177  0.7259263002012313
  0.0630757903872445  0.7468008087404192  0.0403711041328395
  0.1934033962806732  0.3516407216891524  0.5281663305887774
  0.1358970923537812  0.4210224216521975  0.7349366643708717
  0.2255199897337869  0.6561459838713263  0.9037354593175246
  0.6859065930337180  0.7731924837096887  0.4231150685201955
  0.7826891858437927  0.9619687297517593  0.1366805022592702
  0.9330954229800984  0.0153976533881969  0.2822668932112420
  0.7782761698453485  0.8833286834807983  0.6163262311521921
  0.8313079993303861  0.2339138427439440  0.5110434218982207
  0.4099937146253376  0.7425296177246272  0.9671469658758538
  0.2392581071496533  0.4927841095101552  0.9398225363764784
  0.2202262590776407  0.8883016926293461  0.2556375624447107
  0.3196050631373242  0.3367018622850503  0.2070967220860256
  0.4155435783312783  0.1519142113600116  0.9445548672413246
  0.4131113713507047  0.5740389444963853  0.4266224416626378
  0.9662201582999477  0.7434015984791130  0.5787161281503967
  0.8425852722187014  0.3595920137788808  0.1007771326868585
  0.0955773763422767  0.6714970813127816  0.2172059912249948
  0.2753026221573061  0.9848639789483966  0.6198851555366073
  0.1201144259821507  0.3035189206937925  0.6951023427111718
  0.7977706514540506  0.7614421075730646  0.3076767209217247
  0.3775576190462554  0.2268135137168163  0.8521405756248619
  0.2066381885097655  0.3889643907025581  0.0127088320422243
  0.1856989693551658  0.8683251544243147  0.3619794554823170
  0.9497102613557264  0.5951119233055916  0.4954733616994271
  0.0149450133679009  0.9386319151826228  0.3488760558298744
  0.7863884649306703  0.3271799115632318  0.5538748885115243
  0.1268637742575978  0.0296172978069312  0.0185139444353978
  0.0007985347728927  0.0988425511800054  0.8543385786749472
  0.2405533011076444  0.4362565045405891  0.4436263586024428
  0.8591095618161622  0.4589552160444523  0.0352058174466541
  0.2893919127047983  0.6087759488406572  0.4037690844791653
  0.0229014433919835  0.4677626654553021  0.7361689844664643
  0.3646633985702871  0.3204032394837030  0.0799006308573636
  0.9493011555272151  0.6275917754471936  0.2995069868903272
  0.5674469279049535  0.1741862936362473  0.2429360481552312
  0.1586253433227681  0.4628348399919855  0.8512045755060984
  0.1587466933736845  0.6000711483944908  0.9733924374265851
  0.8992625575634352  0.8068813691957202  0.8246463843562657
  0.4818227025473991  0.5047736936502911  0.4877447212341994
  0.0191538169572776  0.6731849761371880  0.1311977637930724
  0.9480049689472253  0.1287612527684014  0.2060109918512719
  0.8789864311169544  0.7777081384320588  0.4826691267599615
  0.8525136895795169  0.9190023338430415  0.0224520401825528
  0.2246686089945751  0.4190145038861536  0.6665553825489292
  0.7956724438547086  0.9652385582823073  0.8126763820075114
  0.6175071675153457  0.6785530429893506  0.4290252386505223
  0.2893169474336759  0.7420063084309967  0.9375666562221912
  0.0849250573865536  0.3456110675202294  0.5067118287000105
  0.4337687399873965  0.2787699554007329  0.2567537552757320
  0.2007618728609001  0.5649691832015310  0.2219633826865064
  0.1536999478449191  0.7448554144565696  0.1146299202537946
  0.9511601017248095  0.6686547780761459  0.6618959680722147
  0.4957200110762571  0.0227375005674934  0.9732803735483091
  0.3319531666896553  0.0795229319692615  0.5868800395796501
  0.6081878828482062  0.5787823419627187  0.1078114585686765
  0.1522048140682027  0.9686538004495423  0.6295285733465712
  0.6173286747688396  0.8429224981700406  0.3538967664270428
  0.0879011656297223  0.4972066099130467  0.3631492608735075
  0.8481865372126655  0.0527797773771228  0.3378561931601154
  0.3198202609533012  0.5482851860643054  0.9436063119538172
  0.1246071757873176  0.6759694622512017  0.3442625938266893
  0.6969916732363870  0.2239739659754415  0.3913222856260439
  0.8654978217122369  0.9481047526942454  0.6712959850199369
  0.4887850688204326  0.2667703718923420  0.4606359152737216
  0.2670633402155247  0.2417482607252835  0.5242563925359610
  0.3998492362989811  0.6597807988524559  0.0709455726302998
  0.9443700500955549  0.3080931861974939  0.1288113132486696
  0.1893983179328981  0.7220778074251366  0.8053108561286836
  0.7040785151858346  0.8515786257585855  0.7036457166332721
  0.4867997004710086  0.2457752974516720  0.9812517163098179
  0.0807972047910814  0.8590874074001902  0.9408249938912968
  0.5523302670054793  0.7384103110413218  0.9629499903614356
  0.1471537674212704  0.9617314989459353  0.1973537304645709
  0.3384617935239227  0.9246983704646926  0.7016841660914378
  0.0693506243842905  0.7959072885640257  0.5988460597366868
  0.7225262619015296  0.7719168510615642  0.9021946371325268
  0.6403802842404913  0.3796983901598638  0.3473308381654439
  0.8382665055693098  0.1203251515130136  0.5349125144701447
  0.3319637834292935  0.4465614175004957  0.2226537553097459
  0.3403888019905750  0.1002976318910181  0.0288884806484044
  0.8774394125421623  0.9112265873560960  0.2114975113514500
  0.8092168002860596  0.2715174479850803  0.9159010118574330
  0.2156890899866447  0.2871156527115242  0.2767607268177238
  0.6540642353637988  0.1337560052396543  0.7662484374204114
  0.7323056542956597  0.3601606815821033  0.1811309733895269
  0.7036852839944755  0.6565569527862273  0.6082703406964344
  0.8389808474170540  0.4218139575987944  0.7404772967653730
  0.9866777165903488  0.6854750189831642  0.9681699948781217
  0.3145144374254658  0.8179608528243936  0.2229209015627919
  0.6976072151813174  0.5540696618680708  0.8418479318239708
  0.6066850304662355  0.4279494646265454  0.7222813234626915
  0.7390624417499768  0.8425312061392698  0.1612730977680404
  0.7115678979067280  0.8867923805238157  0.5129451210640961
  0.1336749781715510  0.0048872120818790  0.8151527003197051
  0.4989727770417782  0.6096025228076940  0.3651583292618093
  0.9244886836392374  0.2503917190337862  0.4406813815307126
  0.6719561210750573  0.1310043978092050  0.9476904840609687
  0.4048374112779627  0.8594424822604386  0.0301607674947442
  0.7185317768859468  0.0570024301281068  0.1432968881962333
