Sc  F  C 
 1.0000000000000000
    13.1286234000000004    0.0000000000000000    0.0000000000000000
    -6.5643117000000002   11.3697213799999997    0.0000000000000000
     0.0000000000000000    0.0000000000000000   26.8280942399999986
 Sc  F   C  
  32  32  16
Cartesian
  0.0600756100000000  1.8897775400000001 12.0608855399999992
 -1.6786197899999999  4.8067719100000001 12.0760871099999996
 -3.1765685299999999  7.5452168200000003 12.0842863099999995
 -4.8298634199999997 10.4651826600000000 12.0807629500000004
  3.4431672299999998  1.9106613400000001 12.2578609499999995
  1.7336759300000000  4.6344072799999996 12.1242509900000002
  0.0931073900000000  7.5895980200000004 12.1351990300000008
 -1.7371771100000000 10.3853897100000001 11.9896619500000003
  6.5078259899999997  1.8617950800000000 12.2736556399999994
  4.8132297399999997  4.8225383900000001 12.1356143400000001
  3.2473198000000001  7.7294625999999997 12.1274036800000005
  1.6031142500000000 10.4414895300000001 12.1200516700000005
  9.8299793799999993  1.8218149100000001 12.2372356199999999
  8.1884940400000001  4.7861243299999998 12.1220190799999994
  6.5712209300000000  7.5793693600000003 12.1208764700000007
  4.9566307700000003 10.4484109499999995 12.0749692300000007
  1.5713154400000000  1.0041931200000001 14.6107646599999992
  0.0478514300000000  3.7676803400000001 14.6585941599999998
 -1.5594464500000000  6.6586908899999999 14.6743670599999998
 -3.2567981800000001  9.5447781099999993 14.5338758400000003
  4.9630706800000004  0.9191471000000000 14.7822963000000005
  3.2270484200000000  3.7707486499999998 14.7376655000000003
  1.5039769800000000  6.6244619000000000 14.6845477300000002
 -0.0267478000000000  9.6906374000000000 14.5957078599999992
  8.2307662799999992  0.9517220400000000 14.7844727000000002
  6.5220550099999999  3.8291292700000001 14.7502078900000004
  4.9822773299999996  6.6047084900000002 14.7140317700000001
  3.2780316599999999  9.4669694799999995 14.7415679300000004
 11.5212354599999998  0.9051413200000000 14.7351812199999994
  9.7285603199999997  3.9055247799999999 14.6370091900000006
  8.3273344599999994  6.6548972199999996 14.6929193999999992
  6.5280222800000001  9.4347814499999991 14.7063631000000008
 -0.0554971100000000  1.8486706900000001 15.8407423600000001
 -1.6694869500000000  4.7931204799999998 15.8638807800000006
 -3.1358298100000002  7.5613315500000002 15.7218544999999992
 -4.8267190400000004 10.3241885500000006 15.7150758899999996
  3.2965424099999998  1.6684136400000000 15.8332915799999991
  1.6210633000000001  4.4933358600000002 15.9874881000000002
  0.0454058200000000  7.5788845699999996 15.8990361599999996
 -1.8401359100000001 10.3389576200000004 15.8173089000000004
  6.7133446699999997  1.8401952399999999 16.2138774800000007
  4.6961768800000003  4.8266340200000002 15.9407001299999997
  3.2275386099999999  7.5391039500000003 15.9904366899999992
  1.4762678199999999 10.6615207699999992 15.9089076499999997
  9.7980308199999993  1.7772939100000000 15.8647374800000005
  8.1232756300000002  4.5117762600000004 15.8963607899999992
  6.5888358399999998  7.5360924999999996 15.9713308200000004
  4.9875701000000001 10.2599043400000003 15.7995088300000006
  1.6107380200000001  0.7765699900000000 10.9524991099999998
  0.1170351000000000  3.7291345900000001 10.9447419799999999
 -1.4658859300000000  6.5099499999999999 10.9467681300000006
 -3.1454039800000002  9.3254684799999996 10.8058384099999998
  4.9818328100000002  0.8524749000000000 10.9334293299999992
  3.2674639299999999  3.8711566099999999 11.0110668399999998
  1.5392798900000000  6.6135878300000002 11.0095288199999999
  0.0755277500000000  9.4680734399999995 10.8985217900000002
  7.9804708900000003  0.8730951400000000 11.0222669399999997
  6.6053581299999999  3.9290914799999999 10.9793979999999998
  4.9518058500000004  6.5824621099999998 10.9822077199999999
  3.1473906000000000  9.5010041399999992 11.0470188399999998
 11.3622696899999998  0.9092528500000000 10.9580349699999999
  9.7952351499999999  3.8779442899999998 11.0801779200000006
  8.1076134799999995  6.7151192599999998 10.8531248100000006
  6.6566508100000004  9.3140347899999991 10.9280321800000007
  6.5504090100000001 11.3609107900000001 13.3469619000000002
 -1.6618601000000000  2.9723577900000002 13.4775690699999995
 -3.2547323800000001  5.7988882200000003 13.3838098900000002
 -4.9001790200000004  8.5414594600000004 13.3297390999999994
  3.3503510799999998  0.0110449700000000 13.3005071699999995
  1.6030010100000001  2.7986861799999998 13.4304767599999995
  0.0436220500000000  5.6439051400000002 13.4808917299999997
 -1.4951170800000000  8.6559782100000007 13.3502565799999999
  6.5006253100000002  0.0132867900000000 13.4755485600000000
  4.8102812699999999  2.8670443300000001 13.5268926399999998
  3.2327921499999999  5.5965454799999996 13.4835138000000008
  1.6839786900000000  8.5935690299999994 13.3336164799999999
  9.8384796699999999  0.0665770700000000 13.4162364200000006
  8.0109393200000003  2.9099002299999999 13.4272304400000007
  6.7254720399999997  5.6887473200000001 13.5048079300000001
  4.8441496900000001  8.4489572499999994 13.4828998999999996
