Sc Cl  C 
 1.0000000000000000
    13.7939866799999997    0.0000000000000000    0.0000000000000000
    -6.8969933399999999   11.9459428800000005    0.0000000000000000
     0.0000000000000000    0.0000000000000000   27.8102210700000008
 Sc  Cl  C  
  32  32  16
Cartesian
 -0.0306297800000000  1.9473107500000000 15.1746607900000008
 -1.6361197199999999  4.9792324399999996 14.9896703400000000
 -3.5205622900000000  8.0179534799999992 15.2996400000000001
 -5.2778881699999998 10.9150122399999994 15.1495256900000008
  3.3628505899999999  1.8646646600000001 15.0636483999999999
  1.7206661200000000  4.8575504499999997 15.1548686900000007
  0.0541891400000000  7.8730171699999998 15.2342181100000005
 -1.8049682100000000 10.9758018199999992 15.0333236800000005
  6.8828896200000003  1.9236636600000001 15.0860245899999992
  5.2352528800000000  5.0008618800000004 14.9935483299999994
  3.5136466899999999  7.8645846400000003 15.2758745499999993
  1.9172610999999999 10.9759874600000007 15.0968638599999991
 10.3897917900000003  2.1902157899999999 15.3527234499999992
  8.6863099899999998  4.8303164000000001 15.1440470200000004
  7.0249280699999996  8.0589720600000003 15.2009694500000005
  5.1733998000000003 10.8253436900000004 15.1723078400000002
  1.6365900200000001  0.9751947300000000 12.6536388599999992
 -0.1232424000000000  3.9002365600000002 12.6922663500000006
 -1.7092681700000001  6.9561280600000002 12.6215951299999993
 -3.6041954600000001  9.9260748900000007 12.5446745600000007
  5.1388353100000002  1.1295022600000000 12.6346744500000003
  3.3616541799999999  3.8528913999999999 12.6580703400000001
  1.7597330700000000  6.9836447399999999 12.5986215900000005
  0.2268209300000000  9.9566843699999996 12.6480185800000005
  8.6913681100000009  0.9353014100000000 12.7867583899999993
  7.0224018299999997  4.0559013999999998 12.6489349499999992
  5.1770050200000002  7.0276719700000001 12.6679813100000001
  3.5625855199999998  9.9719998099999998 12.7816801499999997
 11.8715263899999997  0.9613985600000000 12.8530018699999999
 10.2658901399999998  4.0333498600000004 12.5281990200000006
  8.6382574999999999  6.9952616399999998 12.7388075300000008
  6.8397911100000002  9.9832873899999992 12.7234943600000001
 -0.1706260600000000  1.7676594500000000 11.0761310500000008
 -1.7315888200000000  4.9572047499999998 10.9430633900000007
 -3.6281188300000000  7.9006210000000001 10.9588243599999995
 -5.0393755999999996 10.8896952200000001 10.8535555200000005
  3.2765518500000002  2.0777480900000000 10.9262366499999999
  1.6457214000000000  4.9295354099999997 10.9959976699999995
 -0.0590725400000000  7.8109666600000001 11.0213027599999993
 -1.5132675099999999 10.9221781100000008 10.7566786600000004
  7.0798311099999998  2.0390392899999998 11.1222251799999992
  5.1022696099999996  5.0222246400000001 11.2663472400000000
  3.5872961000000001  7.8586772099999997 10.8165295700000001
  1.7676012400000001 10.8255708399999993 11.0418751200000003
 10.2721436300000004  2.1570066699999999 10.9973945600000000
  8.7057502200000005  5.0701017600000000 10.9469858999999996
  6.7987935200000003  8.0452492099999997 11.0343706800000003
  5.2078908000000004 10.9894978800000001 11.0119423100000002
  1.7318634399999999  1.0944035500000000 16.7464769199999992
 -0.0399678600000000  4.0722718100000002 16.7533168199999984
 -1.6803879900000001  6.9580904300000004 16.8852989800000017
 -3.3829788299999999  9.8536640400000000 16.9831298299999993
  5.2274966999999997  1.0323028900000000 16.7369053600000015
  3.4003455100000002  3.9634270400000000 16.6577403199999985
  1.6484110100000000  7.0125671599999997 16.8535519899999997
 -0.0071181600000000 10.1723792199999998 16.5183926300000010
  8.7290253199999999  1.1283826600000000 16.8846963199999998
  6.9015838499999997  4.3203436200000001 16.7157888600000000
  5.1387405299999998  6.9075662800000002 16.9136775099999994
  3.5215609600000000  9.8265776700000007 16.9138015599999996
 12.0966059599999998  1.0346915999999999 16.8631969499999990
 10.3051631700000002  4.0390739099999999 16.8809643200000004
  8.6037465300000004  6.8548214500000002 16.7844333399999996
  6.8629407100000002 10.0069687700000003 16.8376478799999987
  6.8893945700000003 11.9001175999999997 13.8850375600000007
 11.9861046899999995  3.0547274299999998 13.9185549300000009
 -3.4335049199999998  5.9624619100000000 13.8298955200000009
  8.5169277300000008  9.0343836500000005 13.8464058100000003
  3.4451631200000001  0.0073056200000000 13.9914394499999997
  1.5071790700000001  3.0477056800000000 13.8151392000000008
 -0.0048130100000000  6.1248228100000004 14.0129302700000000
 -1.8245308200000001  9.0392487900000003 13.9021199400000004
  7.0037256200000000  0.0674268600000000 13.8651035100000009
  5.0815354900000003  2.9811197500000000 13.8542499600000006
  3.4780869700000001  5.9346397499999997 13.9367467099999995
  1.6936431700000001  8.8573939999999993 13.7782132700000002
  3.4489849700000001 11.8249087999999993 13.8803324999999997
  8.5220358399999991  2.9417376300000000 13.9413033899999999
  6.9465065399999997  6.0660914200000002 13.8193957199999993
  5.3378916299999997  8.9868486500000007 14.0934210100000001
