Sc Cl  C 
 1.0000000000000000
    13.7939866799999997    0.0000000000000000    0.0000000000000000
    -6.8969933399999999   11.9459428800000005    0.0000000000000000
     0.0000000000000000    0.0000000000000000   27.8102210700000008
 Sc  Cl  C  
  32  32  16
Cartesian
 -0.1667966000000000  1.9578246500000001 15.2749792899999992
 -1.6258674200000001  5.0417813100000002 15.3820398500000000
 -3.5581986799999998  8.0305824700000006 15.1212445700000000
 -5.2421555499999997 11.0172219899999995 15.2143318000000001
  3.5560241299999999  2.1251055700000001 15.1177899999999994
  1.7261220100000001  5.0065759500000002 15.0751583000000000
  0.0427798600000000  8.0127190800000001 15.0803992900000008
 -1.6849460400000000 10.9447093899999999 15.0230645900000006
  6.8894523599999999  2.0129675400000000 15.0710746100000001
  5.3084087999999996  4.8613606699999998 15.1875951499999999
  3.4610590900000000  7.8253339200000003 15.1463165199999992
  1.7138394500000000 11.0132948600000002 15.0393898900000007
 10.2968313499999997  2.0061156900000001 15.0791712600000007
  8.7330956400000002  5.0881518600000000 15.1164901999999994
  6.9052747400000003  7.9249127899999996 15.1652015099999993
  5.0635507899999999 10.7854343000000004 15.1593342799999995
  1.8026092800000000  1.0442432100000001 12.8792446900000002
 -0.0110697900000000  4.0383657599999996 12.6396769599999992
 -1.7827909300000000  7.1180060400000000 12.7265893899999991
 -3.4154925500000002  9.9974396999999993 12.6251002000000003
  5.2430635800000003  1.1355307500000000 12.6518047899999999
  3.4177218200000001  4.0120198900000004 12.7233782800000004
  1.6511060200000001  6.9939348600000004 12.6398264400000002
 -0.0006803700000000  9.9476341000000001 12.6745323499999998
  8.6854683599999998  0.9100949300000000 12.5711722199999993
  6.9355484599999997  4.0508655800000000 12.6165825399999996
  5.2180898800000000  6.9992237099999999 12.6895967800000005
  3.4403476099999999  9.8721778300000000 12.6053609899999994
 12.1409930300000006  0.9130911300000000 12.6780638099999994
 10.2923361700000005  3.9537187500000002 12.6032083900000007
  8.6527025299999991  6.9315806300000000 12.6713804799999998
  7.0174536300000003  9.9234405900000002 12.6346084800000007
  0.0119202800000000  1.8390376200000000 11.2874264199999992
 -1.8447727700000001  5.0087678799999997 10.8237722000000005
 -3.4999681200000001  7.8839827299999996 11.0247546100000005
 -5.3082458600000004 10.9193553399999992 10.9193366699999999
  3.3269323700000002  2.0481132299999998 10.9966610899999999
  1.8629394900000000  5.0797116999999998 11.0385300999999991
  0.0356919600000000  7.9082534300000003 10.9892958499999995
 -1.6867866199999999 11.1392548900000001 10.9425421600000004
  6.9033779800000001  2.0689142700000001 10.9515527099999996
  5.1431757500000002  4.9328742999999999 10.9673300400000002
  3.4729169999999998  7.8202085600000002 11.0087232999999998
  1.6941148699999999 10.8511281900000007 10.9576436499999996
 10.5840228300000003  2.0764612200000001 11.0153767499999997
  8.5997897800000001  5.0171551299999999 10.9273527599999998
  6.9210455700000004  7.7939197599999996 11.0256569100000004
  5.1767826699999997 10.6503045600000004 11.0751695899999998
  1.7816275800000001  1.0672743499999999 17.0368405100000011
 -0.0906866400000000  4.0133011999999999 16.8486348600000007
 -1.7421790200000000  7.0159369900000002 16.8694138500000008
 -3.3434673300000002 10.0157756899999999 16.9452512499999983
  5.3643911800000001  0.9690606700000000 16.8993656899999998
  3.3851650499999999  4.0117262100000000 16.7917564400000003
  1.6763545000000000  6.9491494300000003 16.8279920899999986
  0.0040573900000000 10.2310922699999995 16.6590484699999983
  8.6115397900000001  1.0228857600000001 16.7456211099999983
  6.8820919299999996  3.9110323299999998 16.8509421800000005
  5.2023372099999996  6.9401430700000004 16.6653567699999989
  3.2263606000000000  9.8246418500000008 16.6394601900000012
 11.9492835700000004  0.8912888300000000 16.8807612300000009
 10.1446282500000002  3.8960274899999998 16.7530935099999994
  8.5497101799999999  6.9272951699999998 16.8322332800000005
  6.8652677400000002  9.9500050499999997 16.8557057400000012
  6.8472793100000002 11.9060349500000004 13.8962717599999994
 12.0325611899999991  3.0181705600000002 13.9414184300000006
 10.2758779499999999  6.0494914700000004 13.9559103800000006
 -5.2135906299999997  9.0551985300000002 13.8313340900000004
 -3.3581363600000000 11.9303279700000004 13.9679601200000008
  1.8874815500000000  3.0265880500000000 14.0218957700000004
 -0.0555890100000000  5.8382778599999998 13.8979895100000004
 -1.7827143200000000  8.9411532900000008 13.8375509799999996
  6.9155928900000001  0.0438574900000000 13.8393476000000000
  5.2980392099999998  3.0322743399999998 14.0037811600000008
  3.3530988399999999  5.9890305100000001 13.9445029300000005
  1.6486638300000001  8.8603364700000000 13.7692340000000009
  3.6220706400000000 11.9032870000000006 13.8522911999999998
  8.6806010199999992  2.8194960700000000 13.8171673800000008
  7.0272474500000000  6.1060430900000000 13.9786446099999999
  5.0230273199999997  9.0057227199999996 13.9623894800000006
