Sc  F  C 
 1.0000000000000000
    13.1286234000000004    0.0000000000000000    0.0000000000000000
    -6.5643117000000002   11.3697213799999997    0.0000000000000000
     0.0000000000000000    0.0000000000000000   26.8280942399999986
 Sc  F   C  
  32  32  16
Cartesian
 -0.0370324500000000  1.8347533400000000 12.3897708800000004
 -1.5989507300000001  4.6914177500000003 12.1226112100000005
 -3.2340096500000000  7.5510472200000001 12.1908688900000008
 -4.9520911500000002 10.3763572300000000 12.1264530300000004
  3.2200164400000002  1.8750816100000001 12.1384655299999995
  1.6422961300000001  4.6753691699999997 12.1336127200000004
  0.1855814100000000  7.5886544499999999 12.2229029499999999
 -1.5399470900000001 10.2958535700000002 12.1793306999999995
  6.4583703200000002  1.8863307800000000 11.9766200499999993
  4.8625512400000002  4.6682521000000001 12.0749148999999996
  3.3531687500000000  7.6359473700000002 12.0252935700000005
  1.6924623100000000 10.4887110999999997 12.2834888600000003
  9.8907779999999992  1.9644262299999999 12.1344439899999994
  8.1358126399999993  4.7412575500000003 12.1033836800000003
  6.5868865100000002  7.6063942800000000 12.1407357699999991
  4.8405447900000000 10.4711539899999995 12.3012445699999997
  1.6404248800000001  0.8617267600000000 14.7598660200000005
 -0.0585345700000000  3.9386287800000002 14.6648779499999993
 -1.6226726899999999  6.6556672099999998 14.6412351399999991
 -3.2193634100000001  9.4869697100000003 14.6082310399999997
  4.9907036700000003  0.8732864800000000 14.6432236800000002
  3.2647144199999998  3.7087860099999999 14.6919032400000003
  1.8070212800000001  6.6825038699999997 14.6118492999999994
 -0.0105137800000000  9.4198348599999999 14.8267568300000008
  8.1491493100000003  1.0534321799999999 14.7413350100000002
  6.5644460699999998  3.8943495900000000 14.6634711699999993
  4.8796352199999999  6.6220338300000003 14.6546937199999991
  3.2563028599999999  9.4636440499999992 14.6746271400000001
 11.4188558300000000  0.8457786800000000 14.7762807699999996
  9.8868981799999993  3.8569968499999998 14.6625229000000008
  8.2484145000000009  6.7249863100000002 14.5845587099999996
  6.5471226500000004  9.4461205199999991 14.6810901200000004
  0.0596332900000000  1.7104577700000001 15.8953638799999997
 -1.6068152099999999  4.9565988699999997 15.8483038999999994
 -3.1206509400000000  7.5993509399999999 15.6836475199999992
 -5.0767284300000002 10.3664366300000008 15.9054678700000007
  3.2277463300000000  1.9099041000000001 15.8817956299999992
  1.7873638199999999  4.9653503800000003 15.8407640000000001
  0.1147820800000000  7.6306379199999999 15.7757322400000000
 -1.6985129600000000 10.4643095699999993 15.7504385300000003
  6.5332312999999997  2.0201608200000001 15.8117874100000009
  4.9608314000000000  4.7551598100000003 15.9064473199999998
  3.3565695500000001  7.5465890499999997 15.8381229500000007
  1.5437061200000000 10.2899716899999998 15.9772987400000002
  9.7261718500000001  2.0037655800000000 15.8371205100000001
  8.1667582000000003  4.6789000800000000 15.6950127500000001
  6.7080242700000001  7.5267005400000002 15.7233231300000007
  4.9359713100000002 10.3515831299999999 15.9507891300000004
  1.5075245300000000  0.7838631300000000 11.0597088899999996
  0.0158540700000000  3.5665643199999999 11.0268429300000008
 -1.5800101000000000  6.6897042600000001 11.0377649000000009
 -3.2500663599999999  9.4490405000000006 10.9733635799999991
  4.8021703899999997  0.8210122399999999 10.9874952399999994
  3.2656360800000002  3.8040888100000001 10.7872626599999997
  1.6234371400000001  6.7746763100000003 10.9629361900000006
  0.1876411400000000  9.8062668100000003 10.9864948800000004
  8.0612433499999998  0.9812118000000000 11.0659359399999992
  6.5745179699999996  3.7219014800000001 10.9038783299999995
  4.7351134799999999  6.4516738299999998 10.8919185899999995
  3.0960912999999999  9.5837292900000008 11.1487344600000000
 11.3192534499999997  0.9378450300000000 10.9889624999999995
  9.8813108900000000  3.6592505599999998 10.8839343700000004
  8.2121880100000002  6.7890577099999998 10.7997178999999992
  6.4901454799999998  9.4122576799999997 11.0404244100000000
  6.4857180899999998 11.3650206300000001 13.5070383899999999
 11.4396165199999995  2.8462096200000002 13.4320380299999993
 -3.1611716799999998  5.6541026299999997 13.3409442400000007
 -4.9165890799999996  8.6195847299999997 13.5077379000000004
 -3.4419225000000000 11.3348427600000008 13.4464431300000005
  1.6062251000000001  2.9180796999999998 13.4723921600000001
  0.0472420100000000  5.6145030000000000 13.2740882500000001
 -1.5965014600000000  8.5019522199999997 13.3918909700000004
  0.0147873000000000 11.3640720300000009 13.4756476500000009
  4.9197634499999996  2.8124302600000002 13.3814000600000007
  3.3237465600000000  5.7531377499999996 13.3716244300000007
  1.6717814499999999  8.4469424400000008 13.4302767900000006
  3.2638799800000000 11.3619938999999999 13.5649645700000008
  8.0993106899999994  2.8113332999999998 13.2755685099999994
  6.6034364200000004  5.7510574800000001 13.2682903200000002
  4.9445077399999997  8.5071690699999998 13.4116769500000004
