Ca Si  O 
 1.0000000000000000
    10.5648966099999999    0.0000000000000000    0.0000000000000000
     0.0000000000000000   10.5648966099999999    0.0000000000000000
     0.0000000000000000    0.0000000000000000   10.5648966099999999
 Ca  Si  O  
  27  27  81
Direct
  0.3768067286367888  0.5321426358946640  0.4317322864932419
  0.9071256069774259  0.5517223741198544  0.0338335842928803
  0.2492664828832622  0.7793436570128442  0.8909226978227854
  0.9614801701310735  0.5307474371961696  0.8108425218181099
  0.1436538440483612  0.7369164438988296  0.4234219306761394
  0.7193109531054843  0.1469308339970589  0.8165689905412147
  0.2151373831570322  0.5641918316889237  0.1137615988463516
  0.5308179509008939  0.3756637652509882  0.4213496955366798
  0.9141279187586863  0.3370148049181903  0.2087212436998946
  0.6341191520661744  0.4985701303517063  0.2439540163185752
  0.4247280523079345  0.5867423855461659  0.6880125663624456
  0.5041583800222349  0.7637459047505056  0.1810603255870386
  0.7544120992585842  0.3637245173192472  0.6908831235595027
  0.3334989001846938  0.1311177743745095  0.0394537595006337
  0.7609831167103112  0.1353568399946699  0.4011070677198043
  0.6443334839222814  0.9298315726726266  0.2758904386476528
  0.7923310202654222  0.0356301518032556  0.6442944840138857
  0.5439905833588655  0.8309148829427115  0.7082977596692260
  0.1501931290551456  0.3754242437399489  0.0224061056854962
  0.4433116501648378  0.1340146224109618  0.2750556884058329
  0.8373715197199644  0.0073914788646474  0.0739781825465493
  0.0944753220826834  0.4622816474490800  0.5694058562112139
  0.7932491740683489  0.7510765502891183  0.2251552928353740
  0.0754092822116127  0.7903725780048122  0.0711475642164377
  0.0988172784399828  0.0331362741087913  0.5449870256704765
  0.2328989748627554  0.5486770949100656  0.7481138095112888
  0.4674592295891858  0.3771676436689710  0.9381500516170219
  0.6344903331713722  0.2293599842431397  0.1763609166072095
  0.4015140986789080  0.0568873148679114  0.8074714050609153
  0.9999660072395162  0.2755304322850349  0.8468231938523439
  0.3642307238821147  0.3830405473319630  0.2278853110328734
  0.6756036365982004  0.7772931163592334  0.9635856426994416
  0.4105294807991500  0.8442120419387616  0.3932888359803836
  0.0807754748108226  0.0998366173315538  0.2421795436765756
  0.2968770860503480  0.8041999116165510  0.5997229962480438
  0.0221077942001744  0.7864143092641207  0.7260099793820889
  0.1495834202962446  0.3495910226422935  0.3521030727815140
  0.5322401929307664  0.0935433990962643  0.5408607032265127
  0.0687046259698324  0.0284850265089343  0.8936794498360927
  0.8665750577562917  0.8355269479537292  0.8555136584531139
  0.4715443504941219  0.6316218980963600  0.9587936147346737
  0.9430801027024912  0.9150396361521990  0.3432030084012342
  0.1890933166453392  0.2400350115683716  0.7847623063487794
  0.8516780383334012  0.5364930457185042  0.5235788767458653
  0.7119020258921398  0.5728233084904747  0.7572186302729943
  0.8431896012657715  0.8213673280802698  0.5205146536687215
  0.7442811965199156  0.3649195730274165  0.9774526198605176
  0.4420806158745741  0.2843431280867026  0.6751512100221111
  0.2571125804893230  0.1905404855637295  0.5075375508099743
  0.5007871525209370  0.9457475173531301  0.9798462277616176
  0.9799531090725931  0.5642936149850312  0.3023285345714330
  0.6007417889913453  0.6915683995510488  0.5005173155215572
  0.9202703120442559  0.2880842389994766  0.4872074313654831
  0.2427335784405750  0.9286993401064623  0.1413273281431573
  0.4488602061198969  0.0471131387626518  0.6669734877793566
  0.5918801424030216  0.6473771322595082  0.6984799125260914
  0.7819165312210282  0.6930030534392518  0.8425048903531107
  0.4664526205902927  0.7484925410926478  0.5057104908099995
  0.0846929963472686  0.6329734513133111  0.6887260300411023
  0.3497012092388096  0.9616742619500183  0.9106733766701764
  0.0893453069012097  0.4284664949503941  0.1948396691408796
  0.2456515615631756  0.7549229353035761  0.0876885912090341
  0.9517182771559561  0.3771404157640877  0.9736982016712797
  0.1493193060220586  0.9705271938293015  0.0062410142222868
  0.9651966409541608  0.9073770292201657  0.4796991373491539
  0.9200541670042902  0.7177649843560562  0.6031517046715330
  0.9694788409292348  0.3790267560412974  0.3710100793878001
  0.8046067693605191  0.5520600792703830  0.6522516333456102
  0.6380015279676268  0.0708679249441325  0.1895325315445752
  0.7830149385626596  0.2157905603962176  0.0644426618766504
  0.8770245873707608  0.7550391541408563  0.3877040600778771
  0.3976605607312233  0.9625082956680255  0.1193657691648721
  0.9233138325998251  0.9156975857996590  0.7029553978758719
  0.6531788994005120  0.3000349115579277  0.8848270574793634
  0.7079546469882586  0.7857032251638856  0.6127762702260842
  0.1776993707844719  0.5055057656640901  0.3887010996504205
  0.1138469749776378  0.5814765261578836  0.9387885718268284
  0.4525788700548390  0.9493969387742073  0.3391584965070472
  0.5234833074244349  0.0618072096779374  0.9148878400618822
  0.6188749460937697  0.1817036854088059  0.6266530780560096
  0.4359069586768062  0.5954701179039745  0.0951765906585621
  0.9912023275351296  0.1321176724700574  0.1261150382426696
  0.3097903065991292  0.3399097608395810  0.3713965128902478
  0.5126335173856472  0.3586699709312158  0.2244121923309574
  0.8597775771323899  0.2543771027021910  0.8348255421308851
  0.5485530132414613  0.5348692939078370  0.5271454805083985
  0.4217508182505537  0.2040662601429850  0.5229757255523204
  0.3025633688619694  0.8134226805273015  0.2764624499245336
  0.1320603931589256  0.2677464819979909  0.4759834956870440
  0.6497131106330818  0.6621872506900000  0.0970841426909146
  0.7640979526821892  0.9424033975473046  0.4602256869601301
  0.9180765432970953  0.1739618027364681  0.5779627113643850
  0.4062925874671669  0.5281562031301318  0.2647074498914571
  0.5705322070350105  0.9668687443974903  0.4906271335484466
  0.8007753840195887  0.4625249124894181  0.8562809153699802
  0.5050059264138885  0.2260263794479291  0.0657986041569033
  0.3635622753150634  0.8173293321040839  0.7329819008990757
  0.2952773657100654  0.8951367901744189  0.4855701545762690
  0.2280045833785022  0.0839555835464063  0.4230491489873652
  0.2909689260082594  0.6570452439098692  0.5563887775708199
  0.0500722145732385  0.1502758984406190  0.7713480084875153
  0.8578932548588376  0.5428506507646742  0.2341961868001660
  0.0814484979612120  0.9027102282262657  0.8251587149228147
  0.7288418707961214  0.8938408872890996  0.8051510094238395
  0.7968097541088953  0.3948396405556495  0.4591159770942615
  0.9937362567337041  0.7377019073355607  0.8528931718528194
  0.5832990437565674  0.1846764688783831  0.4019277581931775
  0.5105055864810777  0.3910496678301142  0.7500925113170606
  0.2434717787550597  0.0824148992784133  0.8237921980005065
  0.2220610155123894  0.2144912140318617  0.6432355299689014
  0.1278909590767874  0.2187600338476005  0.2868331117534713
  0.3155465285712815  0.4042418281649422  0.6035186159763091
  0.2790194735280045  0.3473052179731648  0.8545201134722700
  0.9812161455690762  0.0865764194165645  0.3670324133915022
  0.0832561152721020  0.8985563011581615  0.2620119620839337
  0.1492021860874604  0.8330268203164177  0.6175599497892295
  0.9231449819176224  0.0004541511552000  0.8778989262631317
  0.5321741733542625  0.8012875471007568  0.8994722571165796
  0.7445151060498642  0.6284821323963719  0.4525476421108110
  0.2477883482098743  0.0733143530497834  0.2067047970855628
  0.9472808025898893  0.3821552495060337  0.6244966281785507
  0.7380665233031561  0.2939718905588041  0.2667306708266973
  0.5999395710129908  0.5451116601130657  0.9126406055761677
  0.4294484004420371  0.2239136905287709  0.8089297070745306
  0.0737345265889923  0.2125633399833148  0.9605007947162485
  0.0885202008616722  0.3598692491132670  0.8099203092911290
  0.0424621618706025  0.6711892195223291  0.2428809532855429
  0.3366788177210567  0.3465382677322765  0.0791461611851969
  0.6010430517596898  0.7108666101749954  0.3439644441537039
  0.6298042759549541  0.9160943251294157  0.0511270994823299
  0.7584842631034512  0.4449374464820248  0.0996167013128962
  0.3658737215034611  0.5661714251267056  0.9076299223717629
  0.8464666943863259  0.7830313362621728  0.0314951553510754
  0.8372757431082897  0.9326914094618860  0.2406755601936743
  0.9989441363780655  0.5805137453209777  0.4584919359660445
