Sc Cl  C 
 1.0000000000000000
    13.7939866799999997    0.0000000000000000    0.0000000000000000
    -6.8969933399999999   11.9459428800000005    0.0000000000000000
     0.0000000000000000    0.0000000000000000   27.8102210700000008
 Sc  Cl  C  
  32  32  16
Cartesian
 -0.0045839800000000  1.9809030999999999 15.2816387500000008
 -1.5961077299999999  5.1157404000000000 15.2805030100000003
 -3.4431453799999998  7.9790586100000001 15.0340998700000004
 -5.2123952300000003 10.8780177699999996 15.1532781399999994
  3.4805684800000001  1.9613453900000000 15.1163981900000000
  1.7982765199999999  5.0104203299999996 14.9689662699999992
 -0.0064172900000000  7.8885262300000001 15.0307305699999993
 -1.6973628999999999 10.9842859900000001 15.0779921300000002
  6.7955287799999997  2.0310172400000002 15.1612801800000003
  5.1234894100000004  4.9340396899999996 15.0880561899999996
  3.5143361899999999  7.8814872800000000 15.1058128499999995
  1.6104007899999999 10.9064489899999995 15.1130873399999999
 10.3265900300000002  2.0406537400000002 15.3535906499999992
  8.6147341199999996  5.0347336800000004 15.1351378899999993
  6.8254598800000004  8.0363168300000005 15.0668295099999998
  5.2816237800000003 10.9312533100000007 15.1930185899999994
  1.6485356099999999  1.0218899800000001 12.7681465799999998
 -0.0364129300000000  3.9308598699999999 12.6721572400000007
 -1.7846343200000001  6.8689041199999998 12.5649488999999992
 -3.4058021900000002 10.0191950100000007 12.7688420600000008
  5.1107114999999999  0.8477612200000000 12.6234219000000003
  3.6024461400000001  4.0257917699999997 12.5207485999999992
  1.7896484500000001  6.9757201300000000 12.5541673199999995
  0.1472397700000000  9.7891508700000003 12.6095022300000004
  8.6563421199999997  0.9284215400000000 12.8668434800000000
  7.0208425999999999  3.8336968200000001 12.5556111599999998
  5.2505034200000003  6.8234778699999996 12.6763644400000004
  3.4777630300000002  9.8485214200000009 12.5134535800000002
 11.9072910099999998  1.0320611900000001 12.8744722599999992
 10.3673240900000003  4.0143474499999998 12.8013395100000000
  8.6931548400000000  6.8624424099999999 12.6616005800000000
  6.9190424799999999  9.9492086999999998 12.6589914300000004
 -0.0912432000000000  1.8771912399999999 11.1201679200000001
 -1.8086302599999999  5.0316592399999998 11.0798735799999992
 -3.4109588199999998  8.0809004600000005 11.1159314699999996
 -5.2327596999999999 10.9223205700000001 11.1117244900000003
  3.5243930600000000  1.8003553000000001 10.8627090099999997
  1.7655025099999999  4.9379734800000001 11.0501010599999994
 -0.1051440600000000  7.8978236400000004 10.9965358599999998
 -1.6523599000000000 10.8970473600000002 11.0487524300000004
  6.9175307600000000  2.0309973800000001 11.0420322199999994
  5.0735848199999998  5.1426499799999998 10.7927141300000002
  3.4550160000000001  7.9364509800000000 10.8291910900000001
  1.6052156399999999 11.1021396499999998 10.7138059099999996
 10.3679963999999991  2.0920941399999999 11.0575464599999993
  8.6170211600000002  4.9524311299999999 10.9604648499999993
  6.9635039900000004  7.9822978899999999 11.0802812799999995
  5.1097309299999996 10.9954936599999993 10.9928341700000001
  1.7435492600000000  1.0656847000000000 16.8106066799999994
  0.1054648900000000  3.9952483700000001 16.9520075500000011
 -1.7082121400000001  7.0097351000000003 16.8765513300000016
 -3.2225984699999999  9.8242770900000007 16.7679122300000003
  5.2259637899999998  1.0187851200000000 16.8034575000000004
  3.5307967699999998  3.8726933799999999 16.9593954800000013
  1.7010285400000000  7.0798135499999999 16.6950174900000015
 -0.1502111600000000 10.0631260900000008 16.8109992999999989
  8.4948128000000001  0.9407933100000000 16.7827037600000004
  6.8356023300000004  4.0738369099999998 16.8821607399999998
  4.8363145999999997  7.1161398800000004 16.8499888499999990
  3.4474054199999999 10.1038673299999999 16.7344446399999995
 12.1764411199999998  1.0592433999999999 16.9645334100000014
 10.1888427400000001  4.0697000900000004 16.8957346599999987
  8.5939334600000006  7.0147997300000000 16.7656750700000003
  6.9921347799999998  9.9304951799999994 16.7809056500000011
  0.0110123600000000  0.0004576100000000 13.8865975000000006
 -1.6315090299999999  3.1539595199999999 14.0321501600000005
 10.2903886799999995  6.0007469400000000 13.8446529100000006
 -5.0537396100000000  9.0183957600000006 13.9725543200000004
  3.4808325600000001  0.1740534800000000 13.9445937400000002
  1.7075873399999999  3.0377262200000001 13.7947919199999998
 -0.0430150900000000  5.9532540999999997 13.9743393400000002
 -1.6372931900000001  8.8875998599999999 13.9080215599999999
 -0.1252103900000000 11.8601915699999996 13.8092830299999996
  5.1193322600000002  3.0141920299999998 13.8706431099999996
  3.3821339500000001  6.0008198999999998 13.7627961400000007
  1.7956590800000001  8.9467659600000005 13.7581891800000005
 10.3355635400000008  0.1516606300000000 13.9974368400000007
  8.4770789099999995  2.9855559999999999 13.9342806699999997
  6.8235438899999998  6.1223642399999996 13.9065931599999999
  5.1272072499999997  8.8826587799999999 13.8471074499999993
