Sc  F  C 
 1.0000000000000000
    13.1286234000000004    0.0000000000000000    0.0000000000000000
    -6.5643117000000002   11.3697213799999997    0.0000000000000000
     0.0000000000000000    0.0000000000000000   26.8280942399999986
 Sc  F   C  
  32  32  16
Cartesian
  0.0219131600000000  2.0295823400000002 12.1651962499999993
 -1.6718393600000001  4.7414704499999996 12.2566174300000004
 -3.2681851399999999  7.5638347899999996 12.2490222400000004
 -4.8479862599999999 10.3831163499999999 12.0705310600000004
  3.2894082099999999  1.8572489299999999 12.1874002400000006
  1.6596216399999999  4.7561834200000002 12.1170598399999996
  0.0312356300000000  7.5002312599999996 12.2876520899999999
 -1.5484873800000001 10.4190921500000009 12.1661642800000003
  6.6054202799999997  1.9057867500000001 12.1598217799999997
  4.8514836099999998  4.7886235299999997 12.0589302699999994
  3.2507825600000002  7.6531648399999996 12.1040267700000008
  1.5179664799999999 10.4250106700000007 12.1717869699999994
  9.7987712100000000  1.8568014500000001 12.0060344600000004
  8.2431258100000004  4.7834884899999999 12.1721375999999992
  6.6161431500000001  7.6657201099999996 12.0925148500000006
  4.9119438200000003 10.4631625300000000 11.9952165599999994
  1.6257678900000001  0.9939643400000000 14.6989588399999995
 -0.0466773600000000  3.7377079900000001 14.7159795500000001
 -1.6676776499999999  6.5933160099999997 14.7870265599999993
 -3.3125887600000001  9.4726796800000006 14.7037697000000005
  4.8916127200000004  0.9460271099999999 14.7004134299999993
  3.3472156700000002  3.8755162599999999 14.6829592800000004
  1.5943516200000001  6.6049641899999996 14.8366653300000007
 -0.0701436700000000  9.5101009699999999 14.7429899599999992
  8.2453940499999998  0.9136890700000000 14.6610097100000001
  6.5313681600000004  3.7654410000000000 14.6884851699999999
  4.9384283499999997  6.5540878899999999 14.6936624699999996
  3.3034441399999999  9.4588395700000003 14.6354510799999993
 11.5545754499999997  0.8387807400000000 14.5119068299999991
  9.8150884099999995  3.7009287500000001 14.7572194600000000
  8.2138492500000009  6.7101727699999998 14.6535772699999995
  6.5376944899999998  9.5288373400000008 14.5903762300000004
  0.0191450000000000  1.8951291200000000 15.7787233300000000
 -1.6670544400000000  4.7718712700000001 15.8014362300000002
 -3.2422567099999999  7.6406696800000002 15.7973600300000001
 -4.9420808999999997 10.4489501400000009 15.8581207200000005
  3.2700282100000000  1.9938889200000001 15.7989725500000002
  1.7456600600000001  4.7690005500000003 16.0334819599999996
 -0.0981439100000000  7.4796312000000000 15.9108944799999996
 -1.6527020400000001 10.5725945499999998 15.8433898600000003
  6.5769388099999997  1.7708607300000001 15.8262950199999999
  4.9134826100000000  4.6489488100000003 15.8960618300000007
  3.2403726499999999  7.6221937700000000 15.7906851899999996
  1.7068812099999999 10.3413535299999992 15.8784555699999999
  9.7818335399999992  1.8527886700000000 15.8513067099999994
  8.0640327900000006  4.6821483900000000 15.7691372600000008
  6.5022605899999997  7.6308576300000004 15.7066375499999999
  4.9104601199999998 10.3767567100000004 15.6463259000000008
  1.7460483000000000  0.9668414700000000 10.9132544800000009
 -0.0191882000000000  3.7918468900000000 11.0005457700000004
 -1.7370380500000000  6.6341361499999998 11.1217263499999994
 -3.2053557499999998  9.4934466999999998 10.9755825799999993
  5.0923969299999996  0.8572773700000000 11.0606291999999993
  3.1601540600000000  3.7768820100000000 11.0735766299999998
  1.6023062800000001  6.5912499300000000 11.0227102800000001
 -0.0804069000000000  9.4008545500000000 11.0909155500000001
  8.2346799399999995  0.8945910600000000 10.9664576799999995
  6.4853965999999996  3.8196163799999998 10.8820327399999996
  4.9350836600000001  6.6307946299999996 10.9768096899999996
  3.1163978700000001  9.4583311400000003 10.7995597399999994
 11.6095064699999995  1.0392374700000000 10.9775833100000000
  9.9224904800000004  3.9549463999999999 11.0307407200000007
  8.2796725299999991  6.7082049899999996 11.0580896899999992
  6.7630810900000000  9.2744199300000005 10.9869598899999996
  0.0035868100000000  0.0258049700000000 13.2783648400000001
 -1.6127629699999999  2.8176153899999998 13.4639970899999994
  9.7868330199999996  5.6423698399999997 13.5070558100000007
 -4.8675706500000002  8.5409542300000005 13.5174939999999992
  3.3145052499999998  0.0270577000000000 13.3947291100000001
  1.6686626499999999  2.9124504600000001 13.5300586200000001
 -0.0073756500000000  5.5588884600000004 13.5307136700000008
 -1.5696217900000000  8.5178743800000003 13.4664923900000009
  6.5724377599999997  0.0084319200000000 13.4096139099999991
  4.9980436800000003  2.7872596399999998 13.3339182100000002
  3.3079524100000000  5.7369317999999998 13.4287170099999997
  1.6527366999999999  8.4697990799999996 13.4376795500000004
  3.3056268100000001 11.3394484999999996 13.1940977200000003
  8.1709329099999994  2.8447220400000002 13.4376099399999998
  6.5251567699999997  5.6931584300000004 13.3060150900000007
  4.9398768500000001  8.5563229599999993 13.3199940399999992
