Sc Cl  C 
 1.0000000000000000
    13.7939866799999997    0.0000000000000000    0.0000000000000000
    -6.8969933399999999   11.9459428800000005    0.0000000000000000
     0.0000000000000000    0.0000000000000000   27.8102210700000008
 Sc  Cl  C  
  32  32  16
Cartesian
 -0.0674680500000000  2.0483144000000002 15.0628352299999992
 -1.6825730699999999  5.0122091900000001 15.1004563899999997
 -3.4603725299999999  7.9562421499999996 15.1846823200000003
 -5.2556928899999997 10.9899823199999993 15.1057271600000007
  3.5072363000000002  1.9881004799999999 15.1604901400000003
  1.8349715799999999  5.0571046900000001 14.9258712899999999
 -0.0876178700000000  8.0794073300000004 15.1587728899999998
 -1.8437208199999999 10.9345703200000006 15.2005180299999996
  6.9257151900000000  2.0477549200000000 15.2521121399999995
  5.2144232199999996  5.0070668899999999 15.0945632799999991
  3.4306432700000000  7.9374777200000004 15.2164054100000001
  1.7544076799999999 10.9244512500000006 15.1930202600000008
 10.4169473400000001  1.9385983600000001 15.2382009299999996
  8.6712507700000003  5.0784413500000003 15.1957774299999997
  6.9918508199999998  7.9683513300000000 14.9655126500000009
  5.1224337899999997 10.7839590500000000 15.2403702200000009
  1.7312190999999999  0.9470847700000000 12.6775345999999995
 -0.0057622600000000  3.9565217100000001 12.5115346499999998
 -1.8365547400000000  6.8565874300000003 12.5622536999999994
 -3.3999566600000000  9.9474124800000006 12.6862299899999993
  5.1716461599999999  1.0365963499999999 12.7791742100000008
  3.5523434900000002  3.9793785900000000 12.5563274400000005
  1.7010992700000001  7.1439975300000000 12.6507909600000001
 -0.0548390500000000 10.0108801399999994 12.7176927299999996
  8.4711597600000008  1.0791896200000000 12.7256841600000001
  6.9167688600000004  3.9882587100000002 12.5965497299999996
  5.1135761999999998  6.9830852999999999 12.6079621900000003
  3.4317271800000002 10.0303230400000007 12.7964625299999994
 12.1010338900000001  0.9807454300000000 12.7378107200000006
 10.3230168399999993  3.7751161899999999 12.5466057200000005
  8.5904830699999994  6.9016734599999996 12.5890874200000003
  6.9833468700000001  9.9147870800000000 12.5802644299999997
 -0.0155010200000000  1.9684349999999999 10.9995074200000005
 -1.7800612099999999  4.8526310300000004 10.9531622899999999
 -3.4600889499999998  7.8575492200000001 10.9437590300000007
 -5.0757912100000002 10.8515098200000004 10.8703636100000001
  3.3198143800000000  2.0989806999999998 10.9927934000000000
  1.7140472800000000  5.1393947899999999 11.1036550300000005
 -0.2539794400000000  7.9208032900000003 10.9336185799999992
 -1.7894476900000000 11.0090077500000003 11.0490849600000001
  6.8277477400000004  2.0723894500000002 10.9287319299999997
  5.3605160600000001  5.2021064700000004 10.8976570299999995
  3.3580818099999998  8.0584237999999999 11.1191418399999993
  1.7097496200000000 10.6908623899999995 11.1307353399999993
 10.1059585399999996  1.9920676399999999 10.8964144500000000
  8.5142800500000000  4.8445339799999996 10.8554419499999995
  6.9337853000000003  8.0240706799999995 10.9012635899999992
  5.0067669500000003 10.9843933099999997 10.9600228200000007
  1.7795883900000000  1.0569236600000000 16.7431591200000014
  0.1337131800000000  3.9913968000000000 16.7622813099999988
 -1.6176886500000001  6.8752947100000004 16.8556580400000016
 -3.4275151699999999 10.1132892200000004 16.8642600199999997
  5.2598950300000000  0.9278069600000000 16.8881826299999993
  3.2110572500000001  3.9829330500000002 16.8212645499999986
  1.8404948200000000  6.7781535000000002 16.8637065399999990
  0.1364992200000000  9.9936520499999997 16.8824218899999998
  8.6814113499999994  0.9261482400000000 16.9599600399999986
  6.6631926699999999  4.1271223900000003 16.9840820100000016
  5.2243953000000003  6.8779619600000004 16.6860409800000014
  3.5585517699999998  9.8512890300000002 17.0133856200000011
 12.2645860599999992  1.0555595700000000 16.9958368799999988
 10.3704477500000003  4.1331273399999997 16.7855169999999987
  8.8169667700000005  6.8734007200000002 16.9294062700000012
  6.9694090900000001  9.9017475499999996 16.8045936000000005
  6.8992474200000000 11.9333122399999993 13.9370172300000004
 12.0396022499999997  2.9740772700000000 13.7927134999999996
 10.2737590399999998  5.9918790299999998 13.9965388100000006
 -5.1403796599999998  8.9442660400000005 13.8158419699999993
  3.5447671999999999  0.0349056900000000 13.8831462899999991
  1.8104549200000000  2.9667432300000001 13.7619811199999997
  0.0766096900000000  6.0638406199999997 13.7300297899999997
 -1.8058348900000001  8.9516475300000007 13.9172716600000008
 -0.0402390800000000 11.7991271399999995 13.9296298899999993
  5.2315866299999998  3.0425471800000001 13.9775652099999999
  3.4998579699999999  6.0776408699999998 13.8656610699999998
  1.6803591400000000  9.0375117300000003 14.1403384100000000
  3.4578552800000000 11.8280523399999993 14.0727486099999997
  8.7237521499999993  2.8108533699999998 13.9794781599999993
  6.8758296799999998  5.8420773500000003 13.8652896000000005
  5.3118797999999998  8.9602753699999997 13.8977769200000001
