Ca Si  O 
 1.0000000000000000
    10.2628755900000002    0.0000000000000000    0.0000000000000000
     0.0000000000000000   10.2628755900000002    0.0000000000000000
     0.0000000000000000    0.0000000000000000   10.2628755900000002
 Ca  Si  O  
  27  27  81
Direct
  0.0509538535680525  0.9542228846213656  0.9537534674528779
  0.1647086935017596  0.3387431377797692  0.0666490345714110
  0.2686027406086874  0.5233287447460911  0.5353652026488221
  0.0505893290283956  0.5678849976198532  0.2601278741604622
  0.2305499525206658  0.7901853909153740  0.1632049882424814
  0.6931802083747173  0.2251043121141450  0.9342285586451311
  0.8563662107103454  0.6784700407734359  0.0499792339390524
  0.6659462087467437  0.5942422420030525  0.6488793410385676
  0.7909204188258118  0.3686125254880928  0.3779383639590627
  0.1483638641672358  0.6844503627077487  0.7432261935857687
  0.9300394754176300  0.7901820477977751  0.4801630378138492
  0.6162070936689586  0.1338537077598931  0.5651243122981285
  0.4889554565866076  0.7080675495161098  0.4310097614658895
  0.9650103728871179  0.4511368777101195  0.8244319972312946
  0.4862278136609469  0.3535342456587258  0.7199675563834834
  0.3379360754776528  0.9219778946964707  0.5984619686888361
  0.8388940813419721  0.0202137303702811  0.7301628139487171
  0.9326864070462731  0.1705203804385200  0.2047951796324952
  0.2434799923361441  0.1484574617161465  0.8158652997955712
  0.0605168672808592  0.2632020057450584  0.6088618813706189
  0.7283185257826944  0.9610207376585768  0.2989749649688582
  0.3814938596561512  0.2324954092130820  0.3023892059087116
  0.5901953596613754  0.4832385491287048  0.1680076762968925
  0.3669882205012679  0.6653278615842599  0.7019749150052788
  0.6336964569985594  0.7702972310901802  0.8468732787201213
  0.3870652494190471  0.5911361515393758  0.9883898202842777
  0.1793457987343682  0.0500050054684527  0.4150761667763723
  0.6741008043341193  0.8777714843174865  0.5735852927746541
  0.9016452035155188  0.7537833097711749  0.7694537004516100
  0.3143113771293412  0.8605254689636164  0.9196926696838191
  0.5451196977824808  0.0720096130484224  0.7870280448367005
  0.3034006368579589  0.2134535287687337  0.5503264909011725
  0.2190300895969450  0.7568762080258249  0.4373159715950528
  0.2155930490043093  0.0522906319280443  0.1256559829348959
  0.2355902708550713  0.4054597128756581  0.8139929512679595
  0.5227266980832611  0.0163128548652708  0.0210261605636398
  0.5404292404561829  0.4354628457500380  0.4395725866925373
  0.8980271970733301  0.4278082659676867  0.1111227696369259
  0.9776809405910375  0.8529143555563651  0.2345927921357566
  0.8675105093035625  0.1076782243250403  0.4599110374678136
  0.6484816932288273  0.5432673923702899  0.9169514808470947
  0.5432973255013412  0.7884245998153038  0.1554444985725487
  0.0645716567631119  0.9875817426721821  0.6632361096369872
  0.7502868131328483  0.3089046926661614  0.6616021036653724
  0.0900425628174257  0.3260926716544169  0.3463357914484862
  0.3180543884971717  0.5325984313135379  0.2363730368478529
  0.7815068154791888  0.9634436404582782  0.0147669216752144
  0.7506294744044539  0.6500067102538071  0.3352818944188332
  0.0069555398361796  0.2051531660435923  0.8787244394531337
  0.9902517419096961  0.5402966791688449  0.5573912321000863
  0.4230683955898953  0.3014432965566135  0.0162229989577414
  0.6636000778023657  0.2080928138777136  0.1917872259815633
  0.4356186393174430  0.9774627902314852  0.3900134426164276
  0.0814735034705804  0.6427453496978424  0.9900276799516382
  0.3795310666920011  0.4332204820189192  0.3667039278608268
  0.9747332141244440  0.0571334520094285  0.5799171341216658
  0.6431413995149092  0.9030597495530978  0.0767784762749911
  0.2464966390574749  0.7712708480762164  0.5888506761095795
  0.4748713737452604  0.5413317867180732  0.5346163228701869
  0.0962671924974587  0.8877861229145037  0.5507616856924210
  0.7961154472106390  0.6394230664156380  0.8337557378496877
  0.3292866409968827  0.5133391673512433  0.7632964573431023
  0.6589874300522433  0.3504443134343793  0.5607761079757959
  0.3051990821219728  0.2000245644603006  0.0590333639618835
  0.5508969976708058  0.5724450158710342  0.8145976706709742
  0.8982719442670357  0.7267783180834603  0.2944279060485035
  0.9559393431173806  0.6550392198606004  0.6616590867199629
  0.5021757600785649  0.2075579783969690  0.8594435597167752
  0.4360525596120960  0.8037478275618462  0.0373673213357154
  0.9018674453209464  0.0821195114964850  0.9535240639119937
  0.4465369983112111  0.7838418481695734  0.8279588683974293
  0.6421938902213663  0.5521916728213988  0.3643933727155315
  0.9974398169626452  0.5296657172086016  0.0696195947942890
  0.5416363709423082  0.3973713803930074  0.9573020966534000
  0.2024534928616435  0.7367762410924832  0.9629445444734267
  0.7840494878297556  0.8028125536304976  0.6809562766998328
  0.0837544372882727  0.8109563988196022  0.3256915608776273
  0.1376049936117368  0.1909150854278260  0.2434208782998606
  0.2742605096706624  0.9442891911739524  0.0402239193469557
  0.6865449013983419  0.7260473241301368  0.2162197563967547
  0.2322876175487186  0.9077273195318935  0.7860706465019129
  0.9032527802473341  0.9033181878413474  0.0907307354390330
  0.4281287248849910  0.0900737178282408  0.6899530904281380
  0.7832069559366061  0.2850567274585855  0.1343223951134343
  0.0523930008977143  0.0882086323722063  0.7871645679766055
  0.0844042931636084  0.6691834905113568  0.4863613405645893
  0.5937043381814979  0.9270755195815445  0.7332793605461605
  0.8043402326774186  0.5428486910070787  0.2021885836774525
  0.7860924932054058  0.4866896666726523  0.0002273358942666
  0.3425455155497992  0.0399549109218034  0.2170829579353792
  0.4084076225267776  0.4188332628906008  0.1627466400964137
  0.3129049223912496  0.3453943847330610  0.9290307961338153
  0.1008511192524356  0.9685864885360069  0.1835665387813592
  0.5673941439642843  0.0807729951250437  0.3195585020240901
  0.6757478826653106  0.1589127711524758  0.7518254978671139
  0.4196760666373819  0.6496002754331353  0.2000054557808393
  0.0952321599759352  0.1409906821251840  0.0155109236786529
  0.9835622386220507  0.3571462148066437  0.2221199058693841
  0.6474758474588506  0.0385574000707535  0.9102144158409311
  0.7623892272087847  0.9918010796036552  0.5252605921923681
  0.5200722256830943  0.7802077653364596  0.5961056037706485
  0.5456526312621899  0.9682695218173253  0.4776230508704822
  0.1077172552960861  0.4662747558455008  0.6615112646025947
  0.2308676714651668  0.3095620289011026  0.6636476229563258
  0.6663453308021636  0.3856382945786055  0.7633340501207421
  0.9643618489971386  0.3332319475189117  0.9838471314841302
  0.0431447810233077  0.7766429009201309  0.0820750346833348
  0.4855034426077458  0.8723929206278139  0.2733469090021386
  0.1684824935113532  0.5308667577836242  0.8958953306380283
  0.2021120544441872  0.1221485614832441  0.6236543719029922
  0.2233104260011789  0.3697098173631860  0.2666007071805496
  0.1376807374900664  0.2858336315465362  0.8699660374622157
  0.5412623315255447  0.1701879969880839  0.1091812864897060
  0.9738491012926719  0.2268416292864756  0.4103173348513718
  0.9006549030962189  0.2658745062308604  0.7835572924449724
  0.9937524761517644  0.6663983032848984  0.8775043048144365
  0.5638248519389877  0.3315479156071500  0.3121386108510744
  0.7718390825782192  0.1662987517517008  0.3453001450639236
  0.1983528770419402  0.5862103079435264  0.1256494623452802
  0.4382988355021071  0.2985993548422232  0.5413705926060046
  0.3511523781416121  0.0967616864582883  0.4632093274746595
  0.2858198605523581  0.6421387331657209  0.3680718651291767
  0.8639119243186695  0.8694787227757869  0.8874890258705748
  0.0348551053613620  0.4532677824266600  0.4363314025128897
  0.3065464656967551  0.8848901480252671  0.4013275532652150
  0.2052681396676660  0.2822218933280473  0.4536336681832465
  0.4162385008508127  0.9881868235723201  0.8961352663147699
  0.7994746830990280  0.1870090252160993  0.5793760995986116
  0.7257658036172296  0.0605437496100447  0.1467260746556512
  0.8117009474534612  0.5885417519710965  0.4753419738180808
  0.6010211071846385  0.6347882260550719  0.0215753263359982
  0.8741638005182132  0.4191352075037674  0.6176604465688549
  0.0179543694536786  0.8616600671469311  0.7337270362448192
  0.6843699339826061  0.7552127843732344  0.4534469154565675
  0.9109855613089430  0.9935371398183342  0.3299834837031285
