Ca Si  O 
 1.0000000000000000
    10.2628755900000002    0.0000000000000000    0.0000000000000000
     0.0000000000000000   10.2628755900000002    0.0000000000000000
     0.0000000000000000    0.0000000000000000   10.2628755900000002
 Ca  Si  O  
  27  27  81
Direct
  0.5880203308593357  0.0298986183072302  0.6294922639708234
  0.9705806460039139  0.5122267647015294  0.0213982287979777
  0.0533188875964928  0.0573830438492142  0.1097102727326348
  0.4649924047262080  0.4501955353041555  0.5404798227706081
  0.5089258604176454  0.5655610631834620  0.0914603067891228
  0.7867668919096779  0.5907768321685365  0.8417229278719143
  0.3704933638389745  0.1663377174388996  0.4450125893029558
  0.1601342592130165  0.1802577595116302  0.6769245548264510
  0.6075683404050697  0.1705830422134154  0.1745446999031584
  0.7358432316336790  0.4374176945469530  0.3113276977763695
  0.3265947541316732  0.7253744435189046  0.8831121356309845
  0.0094524803647162  0.6365183980565042  0.5375450410190542
  0.7798358003870142  0.9232064606952914  0.8712492421434489
  0.8089222174815431  0.0076906827241389  0.3796234676951784
  0.0866086782603198  0.7763606963884087  0.1759592917368688
  0.2039554325338947  0.5000507659861441  0.7776469109473050
  0.0628276182776956  0.8925791616265710  0.6128003155497669
  0.1805868193321829  0.3352691036567462  0.2524285661734306
  0.6396343327396801  0.3171821592743287  0.7488005386607245
  0.8524357996236804  0.1761405849800426  0.9510540398161448
  0.4242700617205865  0.3381363838592532  0.9597647046991048
  0.2702347315505166  0.6036288694794556  0.2881507881554667
  0.5677367146180128  0.7326274194852634  0.6003214153743824
  0.2557162685044300  0.9254481404075952  0.3172148528402847
  0.3424472614112630  0.0547042917042708  0.9024327566656198
  0.9065529439980282  0.2941295783553389  0.5006079879801018
  0.7798881424421515  0.7909477259871958  0.3558280452662098
  0.7099981945703387  0.3744626597388189  0.0233810200558029
  0.6029761001906484  0.0909726364518855  0.9056277890629677
  0.5105079618333365  0.5455956774391728  0.8031133280063468
  0.1967373473734178  0.4160916696837791  0.4947996646230416
  0.3597650159179217  0.1013133094016197  0.1621124026506883
  0.0714954628033253  0.1040263696697506  0.3887442193967003
  0.9718842153478739  0.5470602133646248  0.3185242314722437
  0.9330111688511661  0.2724641564129104  0.2017083859047345
  0.8769298995273118  0.1061702376146606  0.6627565744465972
  0.7786032871514132  0.6937617266780099  0.1364734569485315
  0.6360975189410827  0.2197421005665723  0.4745635974332219
  0.0643402888605025  0.9685385984494820  0.8721329788623113
  0.1668668050179492  0.2608298343408059  0.9652424267573139
  0.5492319682304557  0.8399202157725855  0.9631732786112825
  0.3284820214799077  0.9418016544425442  0.6009713014556771
  0.2459509333290086  0.5506716612161524  0.0587618104410832
  0.7966669281236022  0.9635869170659995  0.1347666818983626
  0.9402674694217940  0.3854954028532660  0.7593702507310625
  0.4042782496596551  0.8135583683909785  0.1405337390434059
  0.3172268280414768  0.6917048372794316  0.5891661705313530
  0.0386074903203616  0.7095029259728169  0.8639603171882551
  0.8153904114509489  0.8103136579092060  0.6208261821090633
  0.5541694732752772  0.9625778558229604  0.3449991670414471
  0.4058108288926457  0.2530483992742233  0.6991843813240651
  0.4573202226648058  0.3844056673398688  0.2631340939795997
  0.5446271711065339  0.6774958508485631  0.3528421667245408
  0.7619845842835556  0.5284431534261637  0.5709249779573718
  0.4487969886810252  0.3898673997274871  0.7608041285824454
  0.2591385783328978  0.9857000653751470  0.1167139569700270
  0.4958690734747570  0.1883352256441023  0.8010664133949615
  0.0341943841102336  0.9554647500116484  0.2924940338285831
  0.6955043503552789  0.0080629429124747  0.0120963563195644
  0.8334599143279685  0.6596672434182748  0.6303567809302461
  0.7511777466650553  0.1504422075918393  0.5896736676703688
  0.6616238441608158  0.2445420494471764  0.9529614974120524
  0.9023278182406574  0.6228987717856570  0.2010681257805250
  0.9417036234383506  0.4123794898306860  0.2505022103653894
  0.7583907250696781  0.2493638861308656  0.3622897965968620
  0.5550580643840778  0.9613202852827333  0.8346425380374313
  0.4173542680546126  0.2224123823759614  0.2613767687697362
  0.9754944617817394  0.0866996361981623  0.5303472162620263
  0.4781279814773629  0.5406928001160735  0.3124751393386033
  0.6650842709864712  0.9646859189881303  0.2305722718012603
  0.7068681108313035  0.7783889924363782  0.7393914934907635
  0.2486944295112516  0.5641924857436570  0.5132643140615134
  0.0875699984978577  0.4642151069864036  0.4016205549657257
  0.5819900667820529  0.3797376520667732  0.1511920578587078
  0.8621297327837918  0.0828149442665123  0.1816933659233806
  0.9903623649012782  0.5656437544323774  0.7822558131585028
  0.4261314893324162  0.8305220018749150  0.6416634599387169
  0.1846583263512015  0.1109874147855669  0.2715855235267448
  0.8351191656606645  0.3828319894892149  0.9108334548173160
  0.2744647555451853  0.7166954257115767  0.0924045674804872
  0.6772889643885862  0.6048575309680821  0.4735617193621267
  0.4327208735071493  0.9757366375713807  0.2294398767041860
  0.3336849151067221  0.4023265315642397  0.3537079279746000
  0.3944920480128319  0.8732286737191169  0.9928124676799283
  0.2700276492389985  0.2373805722027660  0.8301107915895530
  0.2858177626997815  0.3340828386676370  0.6245458218596607
  0.1229105886491605  0.5418029061385123  0.1656510775261186
  0.2145635285831230  0.9609718546729455  0.7665745678205186
  0.6268540667362801  0.5410927016801146  0.7079026006199496
  0.1880202076969736  0.7042914665206421  0.7149463184713515
  0.0434900633926519  0.2842952079476587  0.0897063363894875
  0.9513749937214234  0.7993269681640952  0.7527717307152897
  0.2260686149465444  0.0326214263306684  0.5070595102088732
  0.3723076915911440  0.5595723313255130  0.9212337436120084
  0.6594351232898459  0.6094266529055723  0.2427121870625736
  0.7297330260241418  0.7839298917195584  0.0191901868314473
  0.8306303184953644  0.4544414525052232  0.7014027966015712
  0.5503370902696484  0.7781925104677216  0.1274000370104847
  0.5836023819518990  0.4463415043697320  0.8975926872752825
  0.9147510858601375  0.8146087523604093  0.4993492394074710
  0.7150072331725499  0.1173947028232464  0.7985859789614774
  0.0402928902697533  0.3405477109559310  0.8688029911117728
  0.1216281361937468  0.8324741925474320  0.9312521988781118
  0.4896866210574418  0.0797422869275959  0.0339319498659147
  0.7486831358929101  0.5468827095077355  0.0782992040537831
  0.3000744014670453  0.2080664167926448  0.0681730733130713
  0.8957267618987087  0.2408640997664086  0.7007485423488409
  0.3798430367604213  0.0884336891781419  0.6671330301101311
  0.8777805714392374  0.8459997798726117  0.1730586738994076
  0.6889202970451287  0.8685058131938244  0.5218916650630470
  0.7210048105045771  0.3585655304625981  0.5649167691021382
  0.1069859475905427  0.1118951213945291  0.9333790345596501
  0.2162228880726401  0.8074009830221474  0.5360362124393636
  0.5861787836405020  0.8134504756283419  0.3574891849585404
  0.4396123406578292  0.6571480362259755  0.4656891373268610
  0.0673297443723568  0.4026894766245530  0.6371826982265894
  0.1350198555802624  0.6206427354733236  0.9504967291530814
  0.8693050502037705  0.5093745835810137  0.4397443991621066
  0.8258327586332945  0.3024861913969670  0.1103822978331554
  0.0721895372795803  0.6882202086598616  0.3596791238117308
  0.5088606934969189  0.2560420056694851  0.5759008124154802
  0.0017888319739439  0.2285654804473762  0.3332325185089767
  0.4521527859620093  0.9543523444387773  0.4777669569314150
  0.3958566333941110  0.7741278533807112  0.2887912110021008
  0.5683030714786245  0.3165185099939422  0.3686720536383312
  0.9898876051755783  0.0507129152483471  0.7595823706170446
  0.5811470856970604  0.0965094199295463  0.3917944190922420
  0.5474203785023180  0.6997172836234293  0.8668052898027969
  0.4008285059996523  0.6026518928112622  0.6878483382258364
  0.9065674184987367  0.6969866386151915  0.9437798047009163
  0.3765755061637652  0.4622522516615638  0.1480264889384672
  0.8127388953372278  0.9669866659662002  0.6566444434507658
  0.1693125386507779  0.2591771240598270  0.4566331433040396
  0.9322597995168721  0.9692430813146006  0.9729218621464357
  0.2114967536111388  0.4109321937127760  0.9889669090298308
