Sc  F  C 
 1.0000000000000000
    13.1286234000000004    0.0000000000000000    0.0000000000000000
    -6.5643117000000002   11.3697213799999997    0.0000000000000000
     0.0000000000000000    0.0000000000000000   26.8280942399999986
 Sc  F   C  
  32  32  16
Cartesian
 -0.0393111400000000  1.7797449400000001 12.1795537399999994
 -1.6297779900000000  4.7033772400000000 12.1830479199999999
 -3.3035296800000000  7.5652299599999999 12.1792629300000002
 -4.9211502700000000 10.4313257200000002 12.2060929100000006
  3.3043634399999999  1.8712648300000001 12.1239720700000007
  1.5371234000000000  4.6461270700000004 12.0679895100000003
 -0.0537330000000000  7.6550175700000000 12.1745909799999996
 -1.7348179300000000 10.4209045200000006 12.1668231299999992
  6.5064579499999997  1.7679890500000000 12.0343430900000001
  4.8214762400000000  4.7552119700000004 12.0370940900000001
  3.1990558700000000  7.5163892199999998 12.1321518699999995
  1.7047689100000001 10.3909883099999991 12.0872477000000007
  9.8223489900000001  2.0181236899999999 12.0349912700000008
  8.1650670200000004  4.7906910099999997 12.1143565500000001
  6.6762634900000002  7.5315120100000001 12.2108322200000003
  4.9173709099999998 10.4170754399999996 12.1946393000000004
  1.6139326700000001  0.9623017699999999 14.7603383800000003
  0.0750374500000000  3.7574152900000000 14.6810618599999998
 -1.5876253899999999  6.7569506900000000 14.6689553000000004
 -3.3049255899999999  9.5542129399999993 14.6733056600000005
  4.8428931400000002  0.9170301900000000 14.7310526300000006
  3.2694831700000000  3.8442269499999999 14.6558663500000002
  1.6483335500000000  6.5748990400000000 14.6358089899999992
  0.1016057500000000  9.5411964299999994 14.6957178800000001
  8.1657994299999999  0.9755512500000000 14.6171269400000003
  6.4957301899999997  3.7492562500000002 14.5803858099999992
  4.8416027899999996  6.5623311500000003 14.7010389000000004
  3.4435109499999998  9.4344657200000004 14.7073359999999997
 11.4625950799999998  1.0108971499999999 14.6693585199999994
  9.8678950499999996  3.7522958800000001 14.6260464500000005
  8.2485142800000002  6.6155770499999997 14.7175929799999992
  6.5379811400000003  9.4449731200000002 14.8238687900000006
  0.2999072200000000  2.0295791400000001 15.9499503199999992
 -1.5455384900000000  4.8323672400000000 15.7959759599999998
 -3.1204713000000002  7.6044905700000003 15.9193187500000004
 -4.8830432799999999 10.5980625800000006 15.8559425600000008
  3.3342679700000000  1.8499013200000001 15.7598397600000002
  1.6658248300000000  4.5584182499999999 15.8732506600000001
  0.1157970900000000  7.6287623599999996 15.9846415099999994
 -1.4871956500000001 10.5645247799999993 15.7791691299999997
  6.5880290900000000  1.8595999700000001 15.9959845099999995
  4.9627916399999998  4.7286148099999998 15.9417276399999999
  3.3215474100000000  7.5500997200000004 15.8143378099999996
  1.6593800800000000 10.5304116499999996 15.6966305100000003
  9.8725457199999997  1.8843591700000000 15.7225979700000007
  8.1769402099999997  4.7344441899999996 15.8255989300000000
  6.5849779599999998  7.5196661300000001 15.9144865200000005
  4.9193767199999998 10.4291868399999998 15.8492411200000003
  1.7254048200000001  1.0957767000000000 11.0119928599999994
 -0.0957433000000000  3.7231194300000001 10.9725529900000005
 -1.6144855100000000  6.6376176600000001 11.0786855899999992
 -3.2865792500000000  9.6539351599999996 10.9719167899999999
  4.8773684900000003  1.0299418600000001 10.9558176500000002
  3.1585410100000000  3.6580547999999999 10.9361711800000005
  1.7088121700000001  6.5521889499999997 10.9103730599999995
  0.0606402600000000  9.3307777499999993 10.9798331699999991
  8.3318105399999993  0.8184653400000000 10.9418725899999991
  6.4370247599999999  3.8655898999999998 10.9503544500000007
  4.7648160700000002  6.6868015900000000 10.9068158299999993
  3.2975249099999999  9.4537617199999993 11.1606567600000002
 11.5323474699999995  1.0122780100000000 11.0828485200000006
  9.8225351100000005  3.9544934100000000 10.9988922999999996
  8.2230391500000000  6.7526377999999996 10.9210002999999993
  6.5086977600000004  9.3511065799999997 11.1491147099999992
 -6.4672051599999998 11.2924490700000000 13.4360669200000000
 11.4403208799999998  2.8455593000000001 13.3938634099999998
  9.7938646100000000  5.6903820300000003 13.4379622800000007
 -4.8915918700000001  8.5331473899999999 13.4762610699999996
  3.2189110099999998  0.0493612400000000 13.4926016900000008
  1.6836782299999999  2.7546906600000001 13.4759548000000002
 -0.0198562100000000  5.7278184100000002 13.3425098900000005
 -1.7759132900000001  8.5782978799999992 13.4702668699999997
  0.0019281300000000 11.3108094999999995 13.2971576099999993
  4.9879289199999999  2.7292041199999999 13.3328105299999997
  3.2371654500000000  5.6356915699999997 13.4536243399999993
  1.6701396600000000  8.5803145399999998 13.4512421199999999
  9.9432093199999994  0.1336906500000000 13.4642681999999994
  8.1454236899999994  2.8721622700000000 13.3265097699999995
  6.5139444600000003  5.6825601600000004 13.4077210499999993
  4.8806434999999997  8.4026057499999993 13.4644392600000007
