Sc Cl  C 
 1.0000000000000000
    13.7939866799999997    0.0000000000000000    0.0000000000000000
    -6.8969933399999999   11.9459428800000005    0.0000000000000000
     0.0000000000000000    0.0000000000000000   27.8102210700000008
 Sc  Cl  C  
  32  32  16
Cartesian
  0.0296502900000000  1.9390867700000001 15.1132227300000004
 -1.6620410800000001  5.0814637200000004 15.1865202499999992
 -3.5705378699999999  7.9066465900000003 15.1212349600000007
 -5.1329337700000002 10.8236945099999993 15.1896221499999999
  3.4293691599999998  1.9943043800000000 15.0873139700000003
  1.6742021100000000  4.9409492899999998 15.2380733999999993
 -0.0874184000000000  7.8842510600000004 15.2242294000000005
 -1.8750447900000000 11.0100659800000003 15.0421279099999996
  6.9245385600000002  1.9331374500000000 15.1751796199999998
  5.0020113300000002  4.9112458600000002 15.1620473699999998
  3.3376959600000000  7.9346918799999999 15.1105154000000006
  1.6511072200000001 10.8480632099999994 15.0615336899999992
 10.4239077800000004  1.8388732299999999 15.1813388699999994
  8.7824527200000002  4.9438284499999998 15.1944094799999991
  6.8409908000000001  7.9604597100000003 15.0789951599999998
  5.1110505799999997 10.9125850599999996 15.0979703900000004
  1.8558743799999999  1.0182590700000000 12.5933054999999996
 -0.0178940600000000  3.9892862400000002 12.7473364500000006
 -1.8012862999999999  7.0288804200000001 12.5671081299999994
 -3.4635906099999998  9.8969498700000003 12.5879384699999992
  5.1458522400000000  1.0346866400000001 12.5664425200000007
  3.3317307100000000  4.0697061200000002 12.7148311399999994
  1.6860775800000001  7.0544519200000000 12.6768701299999993
 -0.1482162700000000  9.9892816700000004 12.6403003700000003
  8.6940816000000005  1.0833875900000001 12.7421648199999993
  7.0011842499999997  3.9156786299999999 12.8322172400000003
  5.1511960900000000  6.9584210999999998 12.6788201100000002
  3.4836141500000002 10.0500121399999998 12.5470180599999992
 12.2656432100000004  0.9136191299999999 12.6007692299999992
 10.4566571400000008  3.9261833300000002 12.7079196299999992
  8.5521401600000004  6.9745296200000002 12.7303437299999995
  6.8269718900000003 10.1190244000000007 12.6809570300000001
  0.0467546200000000  2.0468297799999999 10.9388829800000007
 -1.6809878800000000  5.0208163199999998 11.1392139100000005
 -3.6913005700000001  8.0072020800000008 10.9389716999999997
 -5.1637443799999998 10.8896829400000001 11.0119580199999998
  3.4501461000000000  2.0919991300000000 10.9077721800000003
  1.7617171800000000  5.1687855400000000 11.0224603900000009
 -0.0002890400000000  8.0992959500000001 11.0410077599999994
 -1.6512020700000001 10.9270884200000005 10.9015361300000002
  6.9100789599999999  2.0848700700000000 10.9942127500000009
  5.3213178399999999  5.0930058499999999 11.0615491000000006
  3.4228600500000002  7.9960118900000001 10.9693271299999999
  1.8872623799999999 11.0088262500000003 10.9010560200000004
 10.3422165100000001  1.8766376300000001 10.8680377499999992
  8.6551085499999996  4.8991637399999997 11.0206016200000008
  6.9397059700000003  8.0713126200000005 11.0577244500000003
  5.3052271900000001 10.8945681299999997 10.8897997899999996
  1.6429361300000001  0.8401203900000001 16.8686027100000011
 -0.0474851700000000  3.9081049000000001 16.8842588499999984
 -1.8457698700000000  6.9937758700000003 16.8283041000000004
 -3.2955638399999998 10.0033715999999995 16.8621480000000012
  5.1563049999999997  0.9452995800000000 16.7235899100000012
  3.3982781200000001  3.9152724299999999 16.9162857500000001
  1.8565484699999999  6.8063069499999997 16.9421847300000010
 -0.0800514700000000  9.9501880400000005 16.7452388499999998
  8.6327142899999991  0.9646540400000000 16.8390779299999984
  6.8363186100000002  4.0322613000000000 16.8215649099999993
  5.1483570800000003  6.9918155100000003 16.6510420400000001
  3.3907202399999998  9.9324074000000007 16.8039495400000014
 12.1342961400000000  0.8805060000000000 16.8338852400000007
 10.4587011499999996  3.9937166799999999 16.9013401499999993
  8.6814204900000007  6.9434355800000001 16.8982019100000009
  6.9065157399999997 10.0312268000000007 16.9435234699999988
 -0.0568677400000000  0.1058546100000000 13.8342948000000003
 -1.5063183899999999  2.9732090800000002 13.8268735100000004
 10.3455615600000002  5.9664451500000002 13.7827026900000007
 -5.1684140300000001  9.0008987600000001 13.8828401199999991
  3.4863050300000000  0.0971626300000000 13.7732701399999993
  1.8054239400000001  3.1136632199999998 14.0149516799999994
 -0.1532253500000000  5.9835363399999997 13.9155236200000001
 -1.8334179300000000  8.9717661300000007 13.9157919700000008
  0.1111869100000000 11.8805737100000002 13.9177217899999999
  5.2273395400000000  2.8592178900000000 13.8950666300000005
  3.3426849199999999  5.9720391499999996 13.9853417199999992
  1.6469169800000001  9.0384758900000008 13.9415209900000008
 10.4721332900000004  0.0729468200000000 13.8376623100000007
  8.7997612600000004  2.9850260099999999 13.9531572399999995
  6.8846439699999999  5.9906486299999999 13.9132254300000007
  5.1617296399999999  9.0315436499999997 13.9260768400000003
