Sc Cl  C 
 1.0000000000000000
    13.7939866799999997    0.0000000000000000    0.0000000000000000
    -6.8969933399999999   11.9459428800000005    0.0000000000000000
     0.0000000000000000    0.0000000000000000   27.8102210700000008
 Sc  Cl  C  
  32  32  16
Cartesian
 -0.0482546300000000  1.9769629500000001 15.1390185400000004
 -1.7212166200000001  4.9501657500000000 15.3139484600000007
 -3.4516921200000001  8.0685608500000008 15.1604258400000003
 -5.3141559400000000 10.9466510299999999 15.1087621900000002
  3.5149482700000001  2.0153604600000001 15.1709114700000001
  1.6549110700000000  4.9944641599999997 15.0584582499999993
 -0.0052160700000000  7.9423352400000002 15.0351833100000007
 -1.7546434200000001 11.1144513600000003 14.9269845599999993
  6.9547281700000001  2.1176626000000001 15.1938493300000008
  5.2122005800000002  4.8590255300000003 15.1163540300000001
  3.4384552099999999  7.8391125600000002 15.2433531900000006
  1.4598415199999999 10.9379484500000004 15.1301530700000004
 10.2201726599999994  1.9254057600000001 15.2928024899999997
  8.6709395699999998  4.9278931600000000 15.1873620700000007
  6.8440663099999997  7.9162237900000001 15.2912545899999994
  5.0705679200000002 10.8585124600000000 15.2509669500000005
  1.7839144800000000  1.1310740800000001 12.6475836699999995
  0.0050313500000000  4.0368133899999998 12.6799812099999993
 -1.7501388899999999  6.9282794699999997 12.6582802500000007
 -3.3838815699999998  9.9569302299999993 12.5924101400000001
  5.0660257800000004  1.1099297600000000 12.5624261799999992
  3.3375970700000002  4.0655041299999999 12.5782904400000000
  1.7024216800000000  7.1971460599999997 12.6572461399999998
 -0.0376499300000000 10.0680908999999996 12.5036763099999995
  8.6959123700000003  1.0166761600000001 12.7563337899999993
  6.8778232800000003  4.0273940599999998 12.6033325000000005
  5.1257979999999996  6.9674080600000003 12.6630546899999992
  3.5012208399999998 10.0645603999999995 12.7626031399999995
 12.0423924899999992  1.1729043699999999 12.6936790500000001
 10.3696843399999992  3.9699820699999999 12.7392779600000008
  8.6266935500000006  6.8562572099999999 12.7640147099999997
  6.8948589699999996  9.8281956899999994 12.6563346699999997
 -0.0457693900000000  2.0586182800000001 11.0058373599999992
 -1.5896252399999999  5.0249863899999996 10.9882201100000003
 -3.4898344600000000  7.8295708299999998 11.0917744799999998
 -5.1357463499999998 10.9763836099999992 10.9318349599999998
  3.5879631000000001  1.9971894500000000 10.7949043000000007
  1.7139691600000000  5.0392323200000000 10.9737169500000000
  0.1953447300000000  7.7453967900000000 10.7588185900000006
 -1.6544347699999999 10.9018399400000003 10.7784794000000002
  7.1080861200000003  1.9553831200000000 11.0717780399999999
  5.0576631900000004  5.0452727800000003 10.9782805799999998
  3.4537629700000001  8.0890743399999998 10.9289850400000006
  1.8625400700000001 10.8365403100000002 10.9520776800000004
 10.3169319300000009  2.0516548000000001 11.0235703699999998
  8.7070406299999998  5.0771680000000003 10.8538957800000002
  7.0480478700000004  7.8675476299999998 10.9936733600000007
  5.2166828199999999 10.9554850399999992 11.0456331399999996
  1.6748222399999999  1.0223271599999999 16.6705420699999998
 -0.1578333200000000  3.7555565000000000 16.8387156500000010
 -1.7497767900000001  6.8702155200000004 16.9217438300000005
 -3.3726363899999998  9.9306385499999994 16.8230569900000013
  5.2865099500000001  0.9793530200000000 16.7309191199999994
  3.4633359499999998  4.0203859800000004 16.7359888699999999
  1.5789822000000000  6.8025672600000000 16.8494264200000003
 -0.1060839300000000  9.8616645100000007 16.7732394800000009
  8.7079661300000009  0.8867934300000000 16.9217378899999993
  6.8620301899999996  4.0463764700000002 16.8850825600000007
  5.0922342000000000  6.8546649899999998 16.9218620800000004
  3.4662679500000002  9.8955694100000002 16.8779750499999999
 12.1736749199999998  0.8243699500000000 16.8946405400000010
 10.4007933500000007  3.9185707600000002 16.8497744300000001
  8.6431740000000001  7.0866520800000004 16.9147503999999991
  6.8954670399999998 10.0495753899999993 16.9669760399999987
  0.0628761400000000  0.0366908100000000 14.0172465400000004
 -1.6570317200000000  3.0183395000000002 13.8040366199999998
 10.1628029899999994  5.9801278199999999 14.0085068499999998
 -5.0841887300000002  8.9847600900000000 13.8423516400000004
  3.4292435399999999  0.0903187700000000 13.8554469699999991
  1.6831202000000001  3.1247293900000002 13.9059820599999995
 -0.1144135100000000  5.9379540600000000 14.0562276199999996
 -1.6189409200000000  8.8882272499999999 13.8461316300000004
  6.9911022500000000  0.0066155100000000 13.9333649800000003
  5.2691337999999996  2.8726684400000000 13.8311246899999993
  3.5244385399999998  5.9737684900000003 13.7809360900000009
  1.8140877399999999  8.9045088099999994 13.8636339599999996
 10.2124471600000000  0.0528004000000000 13.8295507499999992
  8.7621335499999997  3.0213714500000002 13.9236777099999998
  6.7265984500000000  5.9312274299999999 13.9632730299999999
  5.2769785499999999  9.0009472099999996 14.0025194600000003
