Sc  F  C 
 1.0000000000000000
    13.1286234000000004    0.0000000000000000    0.0000000000000000
    -6.5643117000000002   11.3697213799999997    0.0000000000000000
     0.0000000000000000    0.0000000000000000   26.8280942399999986
 Sc  F   C  
  32  32  16
Cartesian
  0.0671660900000000  1.8783947200000000 12.1594261299999999
 -1.5793519100000000  4.7448567800000001 12.2042804000000000
 -3.3746660099999999  7.5478748199999997 12.1527883800000005
 -4.9702441899999998 10.3609506000000007 12.1964533999999993
  3.3266969899999999  1.8523730500000000 12.2450337999999999
  1.6649187100000000  4.7580477500000002 12.0725858200000005
 -0.0392003500000000  7.6103106499999997 12.1108424800000005
 -1.7338417800000001 10.4794001199999993 12.2106833300000002
  6.5533958400000003  1.8545161299999999 12.1114917200000001
  4.9315449899999999  4.6546262699999996 12.0859065599999997
  3.3335349700000001  7.6176046499999996 12.1690389900000007
  1.5681060600000001 10.3912883600000008 12.0083417400000005
  9.8660574200000006  1.9067576700000000 12.0420780399999998
  8.2301880900000004  4.6779098299999999 12.1734423700000001
  6.6017550099999998  7.5508715500000001 12.1216013100000009
  5.0389035499999997 10.3264916699999993 12.1973590999999999
  1.6435200400000001  0.9302752600000000 14.8183002899999998
  0.0641672700000000  3.8862907199999999 14.7868636000000002
 -1.6488203299999999  6.7589125599999997 14.7250624000000006
 -3.2568237299999998  9.5187363800000000 14.7953786100000002
  5.0299404100000000  0.9029287900000000 14.7044088500000001
  3.2481570999999998  3.8751969599999998 14.6598912200000004
  1.5970211800000000  6.6172470199999998 14.6053915599999993
 -0.0521366900000000  9.4763048899999998 14.6222234899999997
  8.2979568399999994  1.0068336800000000 14.6171579699999992
  6.5599732399999997  3.8090465000000000 14.6811757499999995
  4.8823258400000000  6.5575356800000000 14.6384068999999997
  3.1710937900000000  9.5864212400000000 14.6707053399999996
 11.5095190299999999  0.9345547199999999 14.6630138900000002
  9.9005012699999995  3.8300134799999999 14.5895319200000007
  8.1239683100000004  6.6022756700000000 14.6292605800000004
  6.5474389799999999  9.3801897200000006 14.7195397999999997
 -0.1274236600000000  1.9220379800000000 15.9593048500000005
 -1.4701682700000001  4.8757864299999998 15.8024947200000003
 -3.3686864900000000  7.5651736200000004 15.8666260500000007
 -4.9654988800000002 10.2856866900000004 16.1087538200000004
  3.2164480300000000  2.1228445400000000 15.8552966099999999
  1.6843813200000000  4.8467656000000003 15.9376499400000000
  0.1006621000000000  7.5490837600000003 15.8275571999999993
 -1.7481548400000000 10.4767100800000001 15.9254270000000009
  6.5598001600000000  1.9383381099999999 15.8982395200000006
  4.8313752699999997  4.7343124200000002 15.7446221299999998
  3.3841497299999999  7.5876989200000002 15.7987920200000005
  1.7012579699999999 10.4854990200000007 15.8285304399999998
  9.6967470400000000  2.0487263200000001 15.8413581200000007
  8.1671839500000001  4.6286317900000000 15.7873360300000005
  6.5519900199999999  7.5809520900000003 15.8654901899999992
  4.8753597099999997 10.4958494099999999 15.8116595100000001
  1.6155248700000000  0.8393581200000000 11.0480020999999997
 -0.0343230500000000  3.7173681500000000 10.9843943500000005
 -1.6206933500000000  6.7057810000000000 10.9974787099999993
 -3.2318039100000000  9.5867816300000008 11.0272282900000000
  4.8195892400000000  0.8086401300000000 11.0708554499999998
  3.2451459400000000  3.6823799899999998 10.8088145799999999
  1.5205040500000000  6.5573995900000002 10.9391227200000003
 -0.1788534000000000  9.4302567100000001 10.8039691199999996
  8.1569802300000003  1.0152373500000000 10.9443255900000000
  6.7395278400000000  3.7277626900000000 10.9816046699999994
  4.9409571400000001  6.6247461699999999 10.9773346899999993
  3.3232439700000000  9.5753794200000009 10.9704362300000007
 11.6401103399999997  0.9728515000000000 10.9872182699999996
  9.9123249300000005  3.8578223199999999 11.0116111599999993
  8.1678800700000007  6.4385115500000003 10.9487629099999992
  6.6067303500000003  9.3362001800000005 11.0451816600000008
 -6.5040057100000004 11.3283216800000002 13.4751595399999999
 -1.6153004799999999  2.9316971000000001 13.4662216200000007
 -3.2827591599999999  5.7681100499999998 13.4569845600000004
  8.1452349999999996  8.4716863100000008 13.3244006099999996
  3.2829955800000001  0.0054092300000000 13.5137136800000004
  1.6972511800000001  2.8221238700000000 13.4509434999999993
 -0.0134266000000000  5.6842541500000001 13.4030424700000008
 -1.6724838500000001  8.6341277499999993 13.4074380600000005
  0.1145649900000000 11.3440498000000005 13.4088542400000001
  5.0287309200000001  2.8032861300000000 13.4111748599999991
  3.3150734300000000  5.7395508599999996 13.2526974699999993
  1.5956027500000001  8.4745818100000001 13.4068655600000000
  3.2526281899999998 11.3287798599999991 13.4711585700000001
  8.2789589400000008  2.8195550900000002 13.4013599699999997
  6.5499433399999996  5.6478753700000004 13.3553643799999993
  4.8733649999999997  8.4721241999999997 13.4040911900000008
