Ca Si  O 
 1.0000000000000000
    14.0127760000000006    0.0000000000000000    0.0000000000000000
     0.0000000000000000   14.0127760000000006    0.0000000000000000
     0.0000000000000000    0.0000000000000000   14.0127760000000006
 Ca  Si  O  
  27  27  81
Direct
  0.1278038869671505  0.9384659642029530  0.2303287771102599
  0.7308018710924944  0.8690761131127764  0.8778709978665183
  0.9307057302564459  0.2454151233131822  0.9531587895217906
  0.3577143258409326  0.3857308922942891  0.0282794843791123
  0.0781333434574277  0.1864511335940859  0.7400721277497050
  0.0308584951332984  0.5145882550324076  0.4102854316660738
  0.4189297959233773  0.5234785505741332  0.7380340198116347
  0.9066585393215448  0.2227994110517431  0.4045335870636910
  0.4647100745776568  0.0374582152744039  0.2768053246551576
  0.4878077826977324  0.7948873713531137  0.6826459667948734
  0.7739111044092905  0.5119447517037309  0.5899149675981404
  0.9885428790126952  0.4387032605102657  0.8257583122716012
  0.6337675489852974  0.4834059539665802  0.0490236224428336
  0.6925978935223114  0.0692460037896845  0.2152060191356802
  0.3851210638063436  0.1160653342349867  0.6324481109239168
  0.7478400532485496  0.5559887270017019  0.2209321186608563
  0.1763881703382684  0.9307319349142525  0.9223263934283970
  0.7954291712077607  0.5954250542504925  0.8388706527528877
  0.6705383872546025  0.1901296702380741  0.7723924431533052
  0.8640716086519901  0.8955655938552075  0.4700455548565109
  0.9594541402788426  0.7718558970756401  0.9098412284617979
  0.9557303071140222  0.3149390270707246  0.2435251266415734
  0.4087576066298355  0.7336980545467935  0.2749806612194471
  0.3921654238960217  0.4499490714759160  0.4581035413682485
  0.5061410572751609  0.8435110459198092  0.0323577612316075
  0.5307210170204676  0.3505876244649882  0.3757599878853412
  0.1430301975854035  0.5753348993803941  0.0845663271859908
  0.7610986152922161  0.7725136090093783  0.6409744999848709
  0.4155956978117683  0.6446426361200663  0.1042059160868624
  0.2841786795136095  0.2281140018223370  0.4955413752421362
  0.1670779437279237  0.3865076727123876  0.1686584977880186
  0.0280657858228805  0.6363654225258435  0.6672610352152920
  0.1169008039520506  0.2539697237720777  0.0207246515608328
  0.8071851187801760  0.2699702864014953  0.6619100876228949
  0.6051695581232441  0.4031000509820467  0.8349576622076881
  0.5745948911193612  0.5152272497612179  0.5612190289775559
  0.2432196561195298  0.7485145926831341  0.9649971797165672
  0.2077456151443511  0.4145480916843314  0.5973957979489574
  0.8456247241802766  0.8993270369839638  0.0986159394826550
  0.7650357102689717  0.3402122698600192  0.1956912727356806
  0.5262570414313338  0.2486888415257619  0.1239682080124595
  0.9472224696947985  0.0051987543367567  0.7517828758555763
  0.8282230401741952  0.6922900009248703  0.1165400346084173
  0.5702624369361217  0.7137766785110958  0.8354778011152107
  0.5446883030171894  0.0018032515470168  0.8628392147280454
  0.4513440648733698  0.2780702795791498  0.8598288633173041
  0.6964865134502970  0.2288904161459513  0.5064047637670080
  0.2075828957802508  0.3478209742309447  0.3816286102054297
  0.3214155631974706  0.9460106027528020  0.1895515078525483
  0.5393621292454828  0.5782118204130288  0.3269112679743114
  0.2210022746385156  0.0280959440156611  0.5934855085102337
  0.5778186163826496  0.0046066653745125  0.4597743416436543
  0.3535193975840333  0.9478817159426511  0.8084694353210241
  0.9225104875721983  0.5468224269052756  0.9822505091068321
  0.5102745251904405  0.4797420696655680  0.2952079637896160
  0.1695395530478757  0.3309960139232940  0.2761687512881102
  0.1799822055244442  0.3912244954176103  0.4988660119879172
  0.2812842972727174  0.5041422613192418  0.5833279558597098
  0.5684779696756731  0.5397506561155334  0.4499662179713713
  0.7309016785824592  0.6793933257764200  0.0617561445355296
  0.4286221730797666  0.5508033483158512  0.0474509190755636
  0.7946324811015318  0.2138955043597357  0.1801734053266819
  0.3087762688849090  0.0062631558514887  0.8976309433619719
  0.8465106664089970  0.3426606940694691  0.5745555113419354
  0.8558145031362807  0.4043867246575553  0.2664473827313018
  0.1836219033259363  0.8169509089419540  0.2297473569833700
  0.6559220000376799  0.9353615993005240  0.5120192158926967
  0.3950869934693882  0.6261145393318212  0.2215611267888675
  0.4606108875215018  0.7024200493892145  0.7795494711397656
  0.8292642970957360  0.1761011151537711  0.6905266358357545
  0.6074523820262309  0.6154276204800533  0.2381358868506854
  0.7035709434019355  0.7206901687431526  0.5572055037488646
  0.8049896101957242  0.9628004265535964  0.1749614095022999
  0.6345572518964122  0.4491511068185204  0.6313185524410010
  0.3774669658602978  0.2964638270104367  0.5224180283763902
  0.1323464280025599  0.3749329219278179  0.7021463884101193
  0.9321052067056520  0.6620009061730523  0.0257998850477593
  0.3276582284623689  0.3331441350379111  0.3494227938846663
  0.9139121313292954  0.6166280378705832  0.6649401460495764
  0.2791033018725197  0.9636146028452891  0.7065011208343015
  0.6833364952097999  0.3756043756069461  0.9291136666995889
  0.1335942863855099  0.9795208122930102  0.5619583999630052
  0.4700579171464669  0.1422826697579409  0.8000479805000807
  0.8308820514935797  0.5841616050952360  0.4050100165734469
  0.6565226868680409  0.0513953916054892  0.8496767535568969
  0.2011841971926190  0.2381158722582877  0.4112045471932185
  0.6015461847102959  0.7332195926060617  0.9525638852715550
  0.0607601070622980  0.6644529784819224  0.5458731553262537
  0.3460249939055616  0.1215443977695783  0.4837975237740187
  0.6043641081538732  0.9988784249459207  0.3248442514174207
  0.0140264684171074  0.2971975624244618  0.8404934917963436
  0.4789404533405801  0.5633049825387917  0.6121008999216144
  0.5498215050322648  0.1064732455581963  0.4446623024588418
  0.9501452809921459  0.9483961300744406  0.3306175435902208
  0.4620301352137506  0.9813167162595049  0.7714542250586179
  0.0654797942962907  0.3293036847231412  0.1277179411131670
  0.6259781430888497  0.2864977895885868  0.1648678670093635
  0.6271729099216314  0.3186214016409026  0.4861532675609743
  0.1110950927924631  0.7424834465347908  0.9811439517765788
  0.8760206657124898  0.6682779329377704  0.2027396627192213
  0.5657167573363051  0.3058074873957879  0.7797862864574443
  0.7873990021677361  0.3201598505535234  0.7733022164915788
  0.8567551504427102  0.7407430583347653  0.7993896113089940
  0.4782855973719982  0.6693353158574717  0.3701749995860920
  0.9933226742509834  0.3244888100687544  0.3900419410115454
  0.7499878546549233  0.8615216656571116  0.0505346306827427
  0.4113923693635008  0.9022980121854512  0.1781276379498252
  0.8123070189661206  0.8749856880606668  0.6258554821685581
  0.5040349471082675  0.4633314619458699  0.8536016460978181
  0.2602757540690010  0.4384024057759861  0.1209757859541892
  0.9644492283327728  0.1194386536971689  0.7985896470478083
  0.9330185039709477  0.0398982963832434  0.2667709132009246
  0.4827261471959589  0.3481746207889143  0.1357117676040779
  0.2931120450366151  0.0083134284027662  0.2748939225175654
  0.1786641925911040  0.3199025981718397  0.9645089995015976
  0.4797001257994846  0.9575421286974115  0.9500746697156937
  0.2460874883035310  0.0073189495072211  0.1014524038634458
  0.8663873203996124  0.4711428135295961  0.9325199075472269
  0.2395637787972918  0.1942477229351272  0.6020120146072413
  0.3362786781148860  0.3094387964240632  0.8215167694110003
  0.9384040549852506  0.8602917616038392  0.0568619893731263
  0.6045311385838180  0.8058468022324770  0.7866371260055823
  0.0131592726523281  0.5340673418314829  0.9364754456932730
  0.7569418557750441  0.1988092980291699  0.4144493624960536
  0.7014821210301229  0.1654717680493858  0.6092245911873564
  0.7840722509230148  0.4519858955855713  0.1160463265808288
  0.3433923670798705  0.8127517923643395  0.0159750616152003
  0.6589049985527493  0.6292984245234492  0.7854930115203440
  0.0454174254979884  0.1811038969009424  0.0227557844355751
  0.9530553788913774  0.9990196125307361  0.6316077007154043
  0.0808227655961959  0.4807722488392022  0.2184629940562812
  0.0971422157893625  0.5950896146488034  0.7401796210829317
  0.5089589507460905  0.1260265895922407  0.1274297248453840
  0.9862806698686969  0.9254200345456175  0.8412329391406813
  0.4374569186005685  0.2419818007509718  0.9744254436094604
