Sc Cl  C 
 1.0000000000000000
    13.7939866799999997    0.0000000000000000    0.0000000000000000
    -6.8969933399999999   11.9459428800000005    0.0000000000000000
     0.0000000000000000    0.0000000000000000   27.8102210700000008
 Sc  Cl  C  
  32  32  16
Cartesian
 -0.0914829200000000  2.1204757500000002 15.1841572399999993
 -1.5214667200000001  5.1385790800000004 15.1020335100000000
 -3.4924548700000000  7.9149997599999997 15.1305237800000008
 -5.2869168799999997 10.9044276199999999 15.1878419099999995
  3.4025183000000001  1.9262742399999999 15.1228312200000001
  1.8127834400000000  5.0829839999999997 15.0435724499999992
 -0.0728382300000000  7.9369811700000001 15.1534558599999993
 -1.8272612300000000 10.9303543899999998 15.2213539099999995
  6.9412895800000003  1.9254333900000000 15.0348975700000000
  5.1996293099999997  4.9455771000000004 15.0195782599999994
  3.2601577300000000  7.9805941000000002 15.1254071200000002
  1.6795000899999999 11.0776025699999998 15.1653354799999995
 10.3484793600000007  2.1023327400000000 15.1918664099999994
  8.6517098800000003  5.0540918599999998 15.2184021099999995
  6.8136555200000002  7.8497153199999996 15.0652635400000001
  5.0739655299999997 10.9809364699999996 15.1817492800000000
  1.7065456299999999  0.9846460700000000 12.6705975899999999
  0.0157946100000000  4.0021927200000000 12.5459603800000004
 -1.7025860399999999  6.9627086499999997 12.7085515499999993
 -3.4181790300000001 10.0248258999999997 12.7101731200000003
  5.0955560899999996  0.9228099100000000 12.7242264499999997
  3.4184281699999999  3.8908773600000002 12.6227807300000006
  1.6921981399999999  7.0064542799999998 12.6768608799999996
  0.0288776800000000  9.9395235199999998 12.7213157700000004
  8.6367406100000004  0.9390488600000000 12.5753572899999995
  6.8853994600000004  4.0455639899999998 12.5886029399999995
  5.1597030999999998  6.9421683600000001 12.6452284899999992
  3.4910233800000001  9.8740668399999993 12.6066034699999996
 12.1834388699999998  0.9984667300000000 12.6649987100000008
 10.4477595599999997  3.9564056399999998 12.8053054700000004
  8.6205948200000009  6.9564263600000000 12.6330328900000008
  6.9261293999999998  9.9690682000000006 12.6601312400000001
  0.1093256300000000  1.8515281699999999 10.8828393699999992
 -1.7620781200000000  4.8517259099999999 10.9037345999999999
 -3.3804734100000000  7.9919390899999998 11.1291716399999991
 -5.1181441999999997 10.7573468600000002 10.9436374199999999
  3.5229424800000002  1.9819053200000001 10.8695914100000000
  1.8186367500000000  4.8942544600000000 11.0075272500000008
 -0.0867519400000000  7.8054060500000002 10.9041958999999995
 -1.6559984000000001 10.8090619799999992 11.0169317000000007
  6.9304796299999998  1.9748940900000000 11.0472420400000004
  5.0688486800000003  4.9644167399999999 10.8072310100000006
  3.4542038200000000  7.9254815599999997 10.9532712599999993
  1.7121130099999999 10.7430200199999994 10.9949007200000004
 10.3700389699999995  1.9655998200000000 11.0774370900000001
  8.5777379299999996  5.1368111100000000 10.8990163100000004
  6.9812672400000002  8.1326859900000006 11.1171640899999993
  5.1821495400000002 10.9995771399999995 10.9697852900000008
  1.7436261099999999  0.9841709199999999 16.9673182400000009
  0.1311324500000000  4.0517577999999999 16.8150172500000004
 -1.6857950300000000  6.9639919199999998 16.9098295999999984
 -3.5251764600000000  9.9859728099999998 16.8687610499999998
  5.1734641100000003  1.0779891500000001 16.7261060800000010
  3.5022186799999999  3.9525867300000002 16.7445559999999993
  1.9057645000000001  7.0008289799999996 16.9802746800000008
 -0.1618979300000000  9.8653790800000003 16.7453128900000010
  8.5630814300000004  1.1247721399999999 17.0646365700000011
  6.8593801499999998  3.9792500899999999 16.8054623399999983
  5.2562796499999997  6.7715122000000001 16.7351945700000009
  3.4040314600000001  9.8691688499999994 16.7988068699999999
 11.9634245299999993  1.2004688699999999 16.8499224699999992
 10.2053022999999996  4.0060543600000003 17.0134844100000002
  8.5498434499999991  7.0236331900000000 16.7335234899999996
  6.8350654300000002 10.1153734899999996 17.1727287900000007
  0.0447515400000000  0.0329900300000000 13.9099702000000001
 -1.6469362500000000  2.9629295199999999 13.8451455499999998
 -3.2663657100000001  5.9512534500000003 14.0256310800000001
 -5.1216053300000004  8.9622002500000004 13.9572042900000000
  3.5156898399999998  0.0479790300000000 13.8903075600000001
  1.7881466200000000  3.0485966400000000 13.8089186799999997
  0.0952849000000000  5.9706578300000004 13.8984860599999998
 -1.7138368399999999  9.0537648700000002 13.9832146500000007
  6.9520172999999996  0.0070189900000000 13.8336720100000008
  5.3345541200000000  3.0765293900000001 13.8588770399999994
  3.4012978600000001  6.0309768799999999 13.8182179099999995
  1.6059199300000000  8.9280936200000003 13.8104276000000006
 10.3098839499999997  0.0185860100000000 13.9228975500000001
  8.7248506700000004  3.2118856000000000 13.8670465600000004
  6.9257078099999996  6.0055466700000002 13.7443344500000002
  5.1831773900000000  8.9107873400000006 13.8144887099999991
