Ca Si  O 
 1.0000000000000000
    12.0937876200000005    0.0000000000000000    0.0000000000000000
     0.0000000000000000   12.0937876200000005    0.0000000000000000
     0.0000000000000000    0.0000000000000000   12.0937876200000005
 Ca  Si  O  
  27  27  81
Direct
  0.3938954560539902  0.7642719113666724  0.8058638406947648
  0.7217860123129894  0.5136683175853555  0.2751294412097506
  0.3480873240272760  0.6214553104579821  0.5368734447810652
  0.2545169318923429  0.7072711038727502  0.0961070573190701
  0.1411037917664375  0.4721406121401692  0.2476783158525484
  0.9405245748808677  0.8063243283579342  0.2993258641332086
  0.5572865765274618  0.4600008016347156  0.7782932407738113
  0.8654728889641276  0.0830742015295949  0.9543068129387243
  0.9534995215998344  0.5357365437181375  0.7936019782692364
  0.6214983590062416  0.8431831896184728  0.9163037857282961
  0.2308526532566974  0.4099361801096355  0.5250802056006338
  0.9239667836998117  0.1696532182032811  0.6894791815436230
  0.4341111705416238  0.7791397373654226  0.3092645246899085
  0.5662514974775124  0.3154892073423066  0.1181325218277647
  0.7655484295663528  0.4309474280316492  0.5608233477478580
  0.4311693461010191  0.2790827585245788  0.6435544921533854
  0.6357946891083242  0.8091906801650944  0.4781298143881247
  0.6214231509714572  0.0836441371210387  0.5036825592940254
  0.1158124992772116  0.8341382829740811  0.5921768766764568
  0.2417952342047164  0.4085162701079416  0.8813849304226495
  0.1561047315629973  0.9760356871555513  0.3347891609493966
  0.7783430895076360  0.1806678030616847  0.3353367859125675
  0.3847895279973504  0.9869615545638298  0.0721922508839294
  0.9069304832062198  0.8428505254336524  0.0167374751699170
  0.2460862629238068  0.2225138521160834  0.1012750652222881
  0.9535118105538553  0.5859648906253904  0.0904102002082289
  0.1721245076734695  0.0687788140602390  0.8744881407136865
  0.8492846387524043  0.9546008936776749  0.5254587487125063
  0.8140696471069665  0.8641519760705042  0.7205552192423899
  0.5789101933972940  0.5679193372506074  0.5084794220985336
  0.1647121342453341  0.6594186222363974  0.3690518264616259
  0.6919929027164444  0.7432901099680465  0.1777539111440093
  0.6836561869440204  0.2458822557031144  0.8068947162477126
  0.9857544025566409  0.3098260551395395  0.4950315722511422
  0.3848057139935123  0.9143285716141921  0.5430086757220564
  0.0635672432951158  0.0053991571583428  0.1240064045378035
  0.5614903406084454  0.5767202624317294  0.0331954043360322
  0.4349158423537787  0.2083429864299205  0.8802310016090724
  0.6832643684212474  0.9776654073573023  0.1231290053033030
  0.7740309449885974  0.4429418109791480  0.9585857230391812
  0.9047554772588275  0.3541121048725677  0.1418623299753299
  0.7133597108760870  0.6367546125305613  0.7146698984283966
  0.1933192332676336  0.6001717615742288  0.7314974016386770
  0.9542371920700224  0.5424187827766732  0.4866885954129233
  0.3453905113309737  0.5057937233728270  0.0982295668922951
  0.1621883922251315  0.2289825914769950  0.6730323804049074
  0.4373471567545189  0.0167309569472992  0.7840291253601491
  0.1169417906480484  0.8028062378029422  0.8802996054266744
  0.5973483979537586  0.3524981332523185  0.3688295230704572
  0.5029689772243577  0.0782199340457742  0.2544253939858752
  0.0165192581743055  0.2914402890762853  0.9616318034862266
  0.2912239490774190  0.1047642599498535  0.4846255808484257
  0.0076940006657732  0.1970142915408663  0.2818213273700601
  0.3820264647577795  0.3226818166995395  0.3033389269986205
  0.8062222395798944  0.8442800659997038  0.4911801345160384
  0.9503077217094374  0.5690701338775452  0.6179382890469511
  0.3865175432938519  0.9741262208472617  0.6707584575559133
  0.9141028334016668  0.9528646783033221  0.6569822606162155
  0.5953814922375824  0.1207441196987053  0.3382406487141536
  0.0871221376715395  0.9130241572738980  0.8201803051011408
  0.0046172400040873  0.9720079779274311  0.0103384517678507
  0.4229609044515369  0.1983288763921588  0.2243264968134110
  0.6372630777189057  0.7644115541364203  0.2908292464292506
  0.8904121511272247  0.3186971427897458  0.5742527327431272
  0.4530375273780440  0.6794009733073185  0.9891827032100635
  0.0945352668595978  0.6557331416077902  0.2406513675820611
  0.0976276694364507  0.7096396116471575  0.7366079750952332
  0.9901745628637061  0.9801316810291397  0.4674674210956583
  0.8442986135389071  0.5366741523777478  0.4270864548223314
  0.3479464533543711  0.3506722718519180  0.4254568272301114
  0.8311231473403368  0.7291194344621706  0.7195730248816788
  0.2260318839632476  0.5276713136128316  0.0461015388659521
  0.5397061677522662  0.9476832767466772  0.8183824010297942
  0.1257091903520628  0.2132545056219534  0.9731738021045221
  0.1242678073422295  0.5090567093983746  0.8183251054974289
  0.6503176380403479  0.5175841098489540  0.9595308264558395
  0.0853432499751472  0.2822390004894099  0.5689136262506982
  0.4663315999260122  0.4703804894500040  0.0461991327742532
  0.0403289560991976  0.6655417469618173  0.4402595702271809
  0.8849536254713890  0.2485386683183709  0.2418685859145259
  0.2495119159368866  0.5486013619941509  0.3891068255752948
  0.2270881700831455  0.5428071259614199  0.6232987966097588
  0.2413952056816423  0.8069319816615069  0.9326420608996935
  0.4868730611956951  0.9243982804454111  0.4659689864803496
  0.0413963760345909  0.7199925783052571  0.9724282821497074
  0.6501798664792494  0.2889011780082839  0.4605894468320422
  0.4174615479149617  0.9701354057679409  0.2469395563934998
  0.7990659364663129  0.0730070163080969  0.4846079784225614
  0.5104843936394511  0.6718226163128207  0.4567362048648246
  0.9865190670513858  0.3210223035155301  0.8334657136967318
  0.4410392581377248  0.1443920477908971  0.7530797047352151
  0.4223140607789175  0.1121986413715441  0.5152972009938438
  0.9025714956287614  0.2473643331600030  0.0421415503574057
  0.7912833713215149  0.8527277817369179  0.8553159725488879
  0.0375661946674734  0.4025116367968764  0.0528502285704931
  0.9888887390598976  0.2023142250285358  0.4091099311036190
  0.1990174704258615  0.0311074331566606  0.1129786773947003
  0.7236477574260560  0.3550268985127093  0.8862089873544513
  0.3409563289486640  0.0079782292389884  0.8714254021272452
  0.0207118553649613  0.4194085698687009  0.4250200476068886
  0.2620754274499158  0.9689503072322019  0.5203575271648436
  0.3587753064907882  0.5895012723896337  0.1883812244422397
  0.6594097854680203  0.2907205492996742  0.2605172861469515
  0.7516853202355144  0.3936185849772679  0.0937323091506381
  0.2471654360009342  0.1424747204217896  0.3659239254939058
  0.7276851848668400  0.0217550620423414  0.9965102165404157
  0.2308783805151690  0.3028504596808853  0.7426199683834038
  0.0971722389151729  0.1183838384620153  0.7053027436908141
  0.9022283979880242  0.4599210788852930  0.2181536118293435
  0.2700866256819549  0.1716711335799032  0.5936951140208628
  0.4234710977998802  0.3373549245443092  0.8638863628398991
  0.5125004402880361  0.4164582369274317  0.2876703419404020
  0.3429972147964675  0.3787497543304800  0.1845555131387366
  0.6168640970396005  0.3013212051097686  0.6896782804591701
  0.5786963951993065  0.2193979225839919  0.8917317236632604
  0.3688757368801884  0.1737034513923439  0.9911796268173593
  0.6105562841031601  0.6278504963526059  0.1544635765647752
  0.7888011886552379  0.9449797920297860  0.2104831315038423
  0.7519543029646819  0.1344377138979393  0.8074671779294896
  0.8282683659364609  0.7105596426870278  0.1735933080657158
  0.7643638660160298  0.5057923863227226  0.7223664499906275
  0.6262126504913769  0.4967411392329378  0.4230099428519649
  0.6122162016269970  0.7021804976925832  0.7924481966386639
  0.5728738264381725  0.0640663359027964  0.1339045641352184
  0.6922292728338817  0.8901982578390937  0.6524054512873941
  0.0010168361134161  0.0723872295022161  0.2398111072501205
  0.6833237774354103  0.6392097490794203  0.5789259022889969
  0.2275403857307030  0.7624547949519888  0.4282882544947486
  0.3161324690105646  0.5932674423796438  0.7966274663255579
  0.1083026650669759  0.2593168698294042  0.2376556013971081
  0.5099490865707794  0.5146174858989296  0.6111756855872420
  0.3491474757682242  0.7815706151783737  0.6352254497421048
  0.8630173257499291  0.5504579052629337  0.9592650900214832
  0.0753382867823174  0.8694432927374327  0.1897093038251982
  0.6408180516733765  0.8397615320451608  0.1084350611409199
