Ca Si  O 
 1.0000000000000000
    12.9304129900000007    0.0000000000000000    0.0000000000000000
     0.0000000000000000   12.9304129900000007    0.0000000000000000
     0.0000000000000000    0.0000000000000000   12.9304129900000007
 Ca  Si  O  
  27  27  81
Direct
  0.9597434072366779  0.0611257320714549  0.2884662773636590
  0.7209897578066453  0.9412234040329751  0.9849869582549197
  0.0996470778618185  0.8922057755558199  0.9104421350736763
  0.6717915032348862  0.7489969405841846  0.6012915910739213
  0.0388339150797688  0.1079678693232520  0.8425271890716307
  0.3963381961553263  0.6740688264745054  0.2726031993507115
  0.4897807003455966  0.5344951159212742  0.6985508318245912
  0.6930005404258941  0.4834690388338478  0.0937487921644489
  0.3690602909350694  0.2538925332500149  0.1926835184558169
  0.2292573239766257  0.8595380827043483  0.4168576815116870
  0.1906458859362388  0.3541882949556123  0.9506790208098371
  0.6002564578565714  0.7105359184664372  0.0477780594075209
  0.9824690015566162  0.6687054734204587  0.0936617848893626
  0.2885720427402992  0.0253651372352647  0.8322107753497205
  0.8394794836324868  0.5389233998472619  0.6159576415818718
  0.6991646699136096  0.0675880871458538  0.6389979536144731
  0.0642899109752255  0.5753806158978686  0.4227867697828265
  0.8882612975225627  0.3603486813300926  0.2860937483482497
  0.2350874486647004  0.4683814983081990  0.6964549289310829
  0.3150232334535820  0.7514585263065136  0.7404099580890493
  0.9276575388022467  0.1487003563990573  0.5374921648190913
  0.0176703041253750  0.4963967334194172  0.8823958622840552
  0.5457923096082022  0.2105020119701529  0.9661637505052343
  0.7636786209100038  0.2754548569140481  0.7090506403075065
  0.4513111564582749  0.0154020633489449  0.1227691931593903
  0.9792008275212870  0.1985423885521231  0.1272828332144401
  0.4367634532916802  0.1757596661264877  0.4508097393724467
  0.0101107930660148  0.3040671665352585  0.7309770474701597
  0.1690223971724820  0.4766666319758437  0.1947251052187777
  0.3825566100499316  0.6127096076611858  0.5038757621306262
  0.8390967912928200  0.3244852823529188  0.9952185757680119
  0.2554671016737571  0.8024891299314949  0.1040647279433880
  0.8141724381225660  0.1174245077225488  0.0140095293274929
  0.0668882858319284  0.3170543441397072  0.3753866024042594
  0.4782917084537762  0.2297338833877416  0.6839984103245569
  0.7475509674343356  0.1929814919237162  0.4193025500572198
  0.9692519619978510  0.7732126852972234  0.3201630105087618
  0.6333264835650079  0.5359461677952175  0.4427411803805038
  0.3816225888389045  0.4423084958247726  0.3404781551374099
  0.9334325159864828  0.9338899159167537  0.5153362073704345
  0.4632594035962033  0.4179613910382919  0.9234745834672679
  0.1404059299114467  0.9238192352586256  0.6290156908592291
  0.5789366291540237  0.2769939779007786  0.2373566453270724
  0.2296259363329121  0.2325849547362369  0.7378311850811193
  0.9693805619119672  0.7560976689268143  0.6374835913110306
  0.8676675724647522  0.7316803142573097  0.8637666514316029
  0.7977927261857706  0.6406949241611192  0.2952653130996398
  0.6667912847538522  0.6672296071805514  0.8617769694299610
  0.1608610600147583  0.0232509008206087  0.1032354876083506
  0.3038235447729500  0.5805725490597806  0.9541056112856608
  0.5850087886481342  0.9862258212372843  0.4378885225382117
  0.6204198780196888  0.8274243373567606  0.2214049436946871
  0.1978595279190692  0.1436716175606082  0.5142258136025708
  0.4834609919137626  0.9514704518343462  0.8747723285209624
  0.2630664606482921  0.9169018398073611  0.0822642811813237
  0.6599078356274527  0.9066173693807130  0.3402104328301118
  0.3554769745989373  0.4860657749184544  0.2253063217898039
  0.7185522308672989  0.6007923262782034  0.4985663075870557
  0.8858268988669016  0.7998923002690574  0.5469972486934465
  0.2925009010095044  0.2165872050773531  0.5054196455329150
  0.8923043609607089  0.7462325161201212  0.7364166950710829
  0.3819241530660499  0.5006771759731705  0.9879581232153668
  0.8989857624029378  0.5977021357304690  0.2423709577121558
  0.2320308494647703  0.3803519991050185  0.1342551658127665
  0.3069962787012265  0.6874895145943826  0.0486885979965904
  0.4605435545334426  0.0100523904457285  0.4097352152709548
  0.1935380967286491  0.1608498237147180  0.0799215246101741
  0.8995647539638253  0.0448143860871377  0.1021093712181578
  0.1285672686004440  0.2618785125130021  0.6786539174569706
  0.9459099488515254  0.4547111352550851  0.4087044338094262
  0.5565878758525252  0.1961420065980429  0.5925978277666751
  0.9711257080273659  0.7999447966588111  0.9210269493488158
  0.0668833965836075  0.7268084698662048  0.3925286024448937
  0.4472632439870739  0.2965270717157503  0.0160579905808561
  0.5871312057759727  0.9820759692533223  0.8222797321495298
  0.2517189468362062  0.8560549518844099  0.5933064331304084
  0.0704088624782587  0.6949022693203243  0.6091064574728637
  0.0951650539663080  0.2727727221650018  0.4845922063623120
  0.6876148678991265  0.5482661037572938  0.3073810111922806
  0.2993070370600746  0.7112700365496988  0.4461019129443908
  0.6870688791510904  0.2778601025952226  0.3492139348907216
  0.3438784053872668  0.4646847323938413  0.4562120455519959
  0.8524787675787917  0.7412449159522165  0.3600891405093474
  0.5052834379731594  0.6626678425992023  0.5802507155651182
  0.6088169222505243  0.3762821785942043  0.1660103332863462
  0.6723363605418762  0.5858721539566232  0.9662922684420771
  0.7114564111072527  0.1352555716010429  0.0582012423409842
  0.6933465641765244  0.6203734448546797  0.7538978760801358
  0.8808891841899320  0.6144208445735034  0.9211808129571583
  0.6391273006044953  0.9516090096670609  0.5523554503265715
  0.6054328818464134  0.9083054732345406  0.0990607926437159
  0.1869742035207802  0.5570176765096503  0.9537775335975560
  0.1435346118824933  0.9204132968687181  0.7485197330885871
  0.0614924318824870  0.2618854202583362  0.2555299991234077
  0.9243648783100469  0.8744128342029082  0.2644001550951235
  0.9296056451790098  0.1962905989130359  0.7468066532343605
  0.1433033145525230  0.4356913970463985  0.3284320928716137
  0.2662382928265619  0.3449755018226993  0.7968147837171285
  0.0922456182120754  0.0182834160194910  0.1877717078238504
  0.5047367555117820  0.5529622801320904  0.4228727886904098
  0.7887315956487482  0.1877616988627986  0.5278520520016275
  0.1607959638727672  0.0432509472383063  0.5885594200189579
  0.7123602275599088  0.7678559623485004  0.1837861669103579
  0.6656908287969540  0.4213161145133695  0.4740194992023994
  0.9705325699732349  0.3718765513304768  0.0030146747849544
  0.5318798815876027  0.7410127501271714  0.2424261106295879
  0.8899207217046513  0.2026089655470471  0.9711066204699778
  0.5032614538323420  0.1989077009364726  0.7968103252361779
  0.3375523004080011  0.5971740829911419  0.6229356035440906
  0.8787438613745314  0.1800491401009768  0.3772341126128254
  0.5646727962708328  0.7450119371631919  0.8702693238570719
  0.7478563134432413  0.7615487221959181  0.8758351012267243
  0.3706014072176978  0.6311388573830850  0.8351648751166454
  0.9334416943476141  0.3741839818837835  0.6774911603190796
  0.3365010733504809  0.1739470086330166  0.7030240130017688
  0.8207486147741365  0.0446332101261060  0.9007339880796800
  0.0970815751183520  0.5981821296799894  0.2136576319825651
  0.7291093979203211  0.3321149195560226  0.9180640277445616
  0.4168416572748617  0.0274419371039749  0.9562798581578793
  0.0245885270830781  0.9886906133537193  0.4476724165327685
  0.3347994911955244  0.7940651986862794  0.2209316873489900
  0.4199876047423911  0.8879739339245961  0.7945790422893523
  0.1873762548708817  0.1036875033331785  0.3997673828359290
  0.5355958108496579  0.4417971177268639  0.8380263204570699
  0.4563791221953847  0.3647286597610832  0.6545326322171865
  0.2039963620682467  0.1751532005784759  0.8441983476043636
  0.1144068624214918  0.0473821934747035  0.9834343318990927
  0.6376062548331645  0.0962566540575747  0.4152359877563354
  0.4693159742610820  0.3107113564823578  0.3204507360441238
  0.5207027644984755  0.1633055998778273  0.2071388927848932
  0.0163223023242354  0.8942729028796472  0.6269897895968132
  0.8344163514610216  0.0060921062661279  0.5502772135354664
  0.0880759578894162  0.4013129939479219  0.7849356457407320
  0.1210851007783627  0.7639237012490813  0.1120682805043182
  0.8228383987602239  0.3847028454425260  0.0992235190780244
