Ca Si  O 
 1.0000000000000000
    11.1219476799999999    0.0000000000000000    0.0000000000000000
     0.0000000000000000   11.1219476799999999    0.0000000000000000
     0.0000000000000000    0.0000000000000000   11.1219476799999999
 Ca  Si  O  
  27  27  81
Direct
  0.3277409222626373  0.4445689839821292  0.2652117304331718
  0.3245155995914557  0.7977195312610929  0.8478257622949004
  0.9957168356325157  0.2107301848051851  0.1282226118150558
  0.5330271711905769  0.3081925548133850  0.8974012310764619
  0.8950462226954118  0.5723476627611684  0.1982056572666776
  0.5412172465821202  0.8951090749961161  0.0591015979316313
  0.0402069568088455  0.7676971566188845  0.2845097244694105
  0.8615698918662779  0.9747259321759369  0.6383569249086775
  0.6860896543976549  0.1345043299106762  0.5862783954401770
  0.7012947349164297  0.6976797565729962  0.9640895244707715
  0.7954549117245983  0.9614097420389950  0.9280908314792575
  0.3975823243577782  0.0421824633147348  0.4011319292593543
  0.2425833323107306  0.1638809552465005  0.2964285361572569
  0.7922205160022835  0.3423014466113727  0.6488123094641279
  0.2800250234588408  0.1400532518958945  0.9884013228877192
  0.0915935220439735  0.4963210409563804  0.6363136604864876
  0.1194250259231574  0.6828220162963399  0.9969679833991090
  0.7570166586145998  0.7371075854584491  0.5921369862081566
  0.2881229018692884  0.3043606261596800  0.5337445032828998
  0.6332481659363461  0.5264944925545630  0.4915756302137181
  0.7343408272533789  0.1383195177915097  0.1069328128686180
  0.9900609566615044  0.0036008495231475  0.3721547177787119
  0.8437297656843500  0.2934179528526608  0.3595836938876878
  0.4364041982258273  0.8529952570321748  0.5398417105303268
  0.2078233782880014  0.2443551676553112  0.7770879794320341
  0.5170557752524870  0.7759676531763724  0.2677861230507065
  0.0799823597084211  0.7247981488436565  0.5736845670901412
  0.9511253724941097  0.7755373067894166  0.8004122970303346
  0.7633865600058281  0.3850761281408940  0.0157765991217107
  0.6207731791811485  0.0007205752293199  0.7948240635852371
  0.5128937227656514  0.3099393585710520  0.6517938097331527
  0.4425952586390875  0.6439550882692158  0.0094092080821585
  0.3316045180316834  0.3876252697854806  0.0363517399679046
  0.1753532821869919  0.9479061018204682  0.5342303228673343
  0.4021236179740777  0.5990440597001621  0.6078294534829173
  0.2849745756041895  0.5276720596837046  0.7914858623035709
  0.5708344610734583  0.2700185108225576  0.3667569545696694
  0.0441627738353108  0.2185478092448642  0.5207554509912962
  0.7804723380968107  0.4781939209769776  0.8153305392999295
  0.1154756430215467  0.4181310579587261  0.1293015361496468
  0.4923514709430821  0.1649297805364249  0.1342195506533798
  0.9002027682618985  0.5535345208529159  0.4445141545567853
  0.7344378057710841  0.0119215719957424  0.3414096270950989
  0.3994165084941310  0.0706394358798134  0.6933866326190090
  0.9171869571319543  0.1906918932745779  0.8185916308860032
  0.0900463568805423  0.9668922071390287  0.0276550069151197
  0.7725121037433257  0.7605271579554850  0.3260778862070676
  0.2718408427182963  0.8561980701567191  0.1433473889530111
  0.6021278181376951  0.5103529888211090  0.2039414017455619
  0.8634614031919272  0.8363750637604150  0.1430436930449578
  0.2989306248921322  0.7227850517994885  0.3920591154947781
  0.1376970395890228  0.0005052379458775  0.7966876975993830
  0.0013199306832200  0.4540856786335826  0.8875170711106959
  0.5472582532414861  0.6100414797132007  0.7878027448156454
  0.3519270313632692  0.7882522847832709  0.0149814164563666
  0.4248992124372231  0.6611742278938683  0.4943104425752882
  0.6953045853565820  0.5150789722110974  0.0881177549290539
  0.5315155591524955  0.7203177429441027  0.9206399359720777
  0.8280242251598148  0.7672622705594313  0.8874111220418904
  0.3821071229854949  0.2703959707891739  0.7102803526225543
  0.2123132204844179  0.3191986774388422  0.0505877689940724
  0.6653801719736196  0.2884158892213022  0.0272134583535462
  0.6115891942408418  0.6973866415455031  0.4115603464158716
  0.4007650079145130  0.9067664099998715  0.1781541342406315
  0.5182263678837949  0.1044740420861250  0.9812961743765368
  0.3532668362633405  0.8725391738221160  0.3864318439232219
  0.6053616474124611  0.1539686868945961  0.7402993987110718
  0.3618010734968680  0.0071027991025399  0.5679770119184736
  0.3788864038245502  0.3277954289027909  0.9122690136589457
  0.6407688738560943  0.5216428728965212  0.8644543839465355
  0.1169719438924748  0.3199659414330207  0.6072242420403113
  0.5373035282971228  0.6707033825931467  0.1239538612898780
  0.8413101391248408  0.1147168280870748  0.2783934333343312
  0.4607706965943936  0.2400554810018671  0.5231550163163508
  0.8403061027526790  0.5079499322010836  0.9629789078453928
  0.0399309925543545  0.1659531462568434  0.3733905930404449
  0.0080673666682813  0.0913625553038027  0.7149786214423192
  0.0168755882872486  0.4335924290195905  0.0425639882168552
  0.9744917879347549  0.7358035323899311  0.1061165277842774
  0.2964538401784677  0.6278712713742959  0.9157259162722476
  0.1714220912429252  0.8688918180560978  0.0250205960328704
  0.5946184059013664  0.1968843581181098  0.2101578830660350
  0.6145691776892084  0.9737927718789628  0.2355410486879758
  0.5700251432939666  0.3890742471106464  0.2903296673303538
  0.8861449274503329  0.8660741820716782  0.2901837962970888
  0.4029246836018204  0.5035255461658492  0.0722480659970161
  0.1025927178251211  0.3451780659698266  0.2400159357699837
  0.8711944129555553  0.3766085141303236  0.1615505046144939
  0.7756953573441014  0.1617794681084132  0.7661097682847577
  0.2683510654673391  0.4272649536506362  0.6984342790938214
  0.0783920663075804  0.7203603371023950  0.8202242846731320
  0.2189879740559973  0.6083861149758618  0.3995641507998894
  0.3642643461886884  0.2927062627577475  0.3488364980332294
  0.9801911781696135  0.5019232135067910  0.3462225637803036
  0.7675727773249155  0.3456844431046631  0.8472998741889423
  0.4409678449413457  0.4312036855400851  0.5373876367668724
  0.2572187482183876  0.6437355278046047  0.6886770330500241
  0.4664004686272720  0.5601673546085231  0.2982532974835932
  0.6168471671860984  0.3896755842318438  0.7104477459653001
  0.4773507934718139  0.9553982499942851  0.7605645210156212
  0.2833178864585344  0.0792782779931221  0.7771819710628237
  0.7570880669706584  0.7227063983095450  0.1969827869213641
  0.6902516133756889  0.8992505942088733  0.6242602275935180
  0.4758404060393853  0.7086230682574115  0.6973931305168665
  0.8584239204045599  0.1916229532200065  0.9768528600019452
  0.7181941238910773  0.5822496001887324  0.6874734363073356
  0.9453381963760505  0.8047673696663172  0.6735624312881141
  0.4217638919876667  0.3032158734269464  0.1309607653180400
  0.6499514552652526  0.3072686914491941  0.4902260842140556
  0.9549636957112533  0.9631749148814552  0.0835670259150149
  0.1370170058199734  0.1007761609970098  0.0973474494891708
  0.2595310221779428  0.8196345741126522  0.5494856122178773
  0.6457102313935719  0.8891971554392351  0.8879828573334918
  0.3934653377186180  0.0968319336672154  0.1968027761842519
  0.2070956352493828  0.0009258495271037  0.9191318628824910
  0.1822494061579689  0.5448418446435274  0.1126861963443439
  0.0411148148828551  0.9250097686127579  0.5411589690197139
  0.2157490575427702  0.0927989152346021  0.5286730974803506
  0.9056749860560394  0.4775010270503268  0.5567253522631208
  0.9007112493447729  0.2193271574534147  0.5337062860558250
  0.0595168947962539  0.1044860327916953  0.9021297733707734
  0.7793360524062454  0.5046606378209468  0.3631131143749455
  0.1657370824819417  0.4888615579245379  0.8817322776688337
  0.9116532438138568  0.5221380928128948  0.7934654670125187
  0.4641614696033168  0.4956713409031250  0.7594583091942759
  0.9918251296790851  0.3174467729558677  0.8465852286764218
  0.7973793093765030  0.0423642480217098  0.4606151851633238
  0.6911463352613073  0.8668156547199294  0.3868159574007274
  0.1691943501392195  0.9198410507178362  0.3172976776671907
  0.7403799151840642  0.8680540556184310  0.0750684964560092
  0.5947816336068217  0.0953990812156023  0.3991623839395727
  0.8759401401895464  0.7235437246725116  0.4334706418974990
  0.1729888959520802  0.9106915795165833  0.6866741113819014
  0.2637896926341232  0.7331291986440992  0.2557140926956779
  0.9688726938877309  0.9411158900542499  0.8336852525096575
