Ca Si  O 
 1.0000000000000000
    12.5260700000000007    0.0000000000000000    0.0000000000000000
     0.0000000000000000   12.5260700000000007    0.0000000000000000
     0.0000000000000000    0.0000000000000000   12.5260700000000007
 Ca  Si  O  
  27  27  81
Direct
  0.0116511587433249  0.5263090450556319  0.6978994816410894
  0.7945861056181227  0.1239589208746239  0.2202019132896431
  0.9685027794032764  0.2225148733800785  0.0303153103886534
  0.5709654089431082  0.4968391187339684  0.0538820571815422
  0.2409157740616171  0.3765989396514628  0.6752012842016689
  0.9305264324724354  0.2766443098274239  0.7603623315213790
  0.2251654014387593  0.0104131950404237  0.9469432567437351
  0.4859017081973835  0.0137734500924871  0.4560288685916652
  0.8471553432161882  0.5184674067764270  0.9386633437303159
  0.9758544922709197  0.4260857108414690  0.3035457649526148
  0.4371521498762181  0.2093817965251671  0.2599934784014459
  0.3908088873844709  0.1165235041796829  0.7213982605877182
  0.4734615054841622  0.3634953668628707  0.8664034002684001
  0.7567225466566927  0.1196952188515632  0.5182357898367165
  0.3246153933356591  0.2550074891805650  0.9998279907425073
  0.3878536643975325  0.4567540553421783  0.3732986587173790
  0.1648379148447997  0.0567282212218198  0.5634784517410488
  0.2972641019888919  0.7356262969949872  0.7850514910103488
  0.1907315830104734  0.7584479058475642  0.2009313982757560
  0.4114908147567433  0.7225379101346232  0.1549331961261593
  0.8318033525279676  0.9448109526770966  0.3900019295756769
  0.8062325302349419  0.6245446704353400  0.4465217350693393
  0.3027715005584353  0.8263363720624266  0.4028926391118682
  0.8643272207484071  0.0053821669526036  0.8463831688630192
  0.5528345602411610  0.5601621849470744  0.5583103064249201
  0.4778014732473952  0.9099519011150343  0.0085045852370296
  0.6560604195889054  0.6955866740326374  0.7544990288254815
  0.9414932864018801  0.7038712429357332  0.2110852981022779
  0.7801232541411631  0.4037530805751524  0.4908900461198125
  0.1160903507644457  0.1556160495670230  0.7666694661613738
  0.3407350932894355  0.9710351898081360  0.2166225328454974
  0.6728422777455338  0.8796247641918015  0.5879391197718039
  0.7136061382380906  0.2499876872794100  0.9843482688504853
  0.6354867105165466  0.7476642809755972  0.9744534191490227
  0.4862576043403877  0.8537749046588434  0.7633330725439024
  0.5206234549224137  0.1300007033331284  0.0701257026345853
  0.6959345477073016  0.7391461823221488  0.1927617273414566
  0.3220497562284100  0.5672236056480604  0.9910385292434098
  0.9686106240824136  0.1938774332252654  0.4897557933174571
  0.5142225398708453  0.2853734243861003  0.4971346479781767
  0.0961764440083761  0.3422280132555542  0.9276665458519711
  0.1973330948972822  0.2399758958715702  0.3606942520678872
  0.1253118128830511  0.6863450300054206  0.5825363549780578
  0.0741396830769747  0.8375059559782118  0.8033816081181089
  0.6960322215986339  0.4238385135960440  0.6754260777721982
  0.1506195446776203  0.1361981730902030  0.1982602651909178
  0.2216162220073814  0.4146549308761646  0.1472887026816871
  0.0101089272213871  0.7897759153509440  0.4545359422388666
  0.8768565447901855  0.7605545945376322  0.9174529984264816
  0.9753309481744872  0.9074463211526040  0.0904588805587068
  0.5658306875181122  0.6133212771443877  0.2647143868747340
  0.7113053056545269  0.1713255434465878  0.7792998274798080
  0.6599911512549427  0.3203701647843258  0.2765848155087749
  0.3160788395721882  0.6073773545892686  0.5870243619906322
  0.6641954268178287  0.3839436559112315  0.9808836163297826
  0.1990731610153863  0.0653271800333225  0.7521565782404217
  0.3114566739607874  0.3028016983778631  0.4303313784770482
  0.5901693180702327  0.7631646557938762  0.2757565285839852
  0.1109707418208584  0.2274825831246353  0.4579650592723815
  0.5739721045786906  0.5512203452479508  0.3726127460568239
  0.1546439665433771  0.6769651494842356  0.7157230839361427
  0.4126648014900124  0.0482022469936700  0.1279832341668217
  0.0554057034648537  0.9735740794997952  0.9596730698455301
  0.8445035905116288  0.6253228770077126  0.2838324773851655
  0.4314536810029003  0.6244558820124747  0.2931562605030947
  0.9385634408876845  0.1129616240369086  0.4230458755220112
  0.1919981678211921  0.5953688307665532  0.5135836978397853
  0.4921360546444336  0.1750065806753435  0.4528248796310415
  0.7109233079489415  0.2954558612557650  0.7739306677992378
  0.2506337534438176  0.6792766446299597  0.9842338913961043
  0.6487391855546072  0.1594588773653668  0.9099624590953107
  0.0256401928138674  0.0753788410890247  0.7373722109169116
  0.8544775160924375  0.8745635430745636  0.0054823013123829
  0.9272224624323511  0.0171738270662706  0.1609207101668760
  0.9225665440158005  0.8457839609709988  0.8140230447378946
  0.3883663519364014  0.2262213032499419  0.8230238965613317
  0.5758761407209124  0.4028679250555042  0.7171067278084826
  0.7054368808413173  0.2152891888676975  0.3322323865346433
  0.7826608130083896  0.9175361362342697  0.6026996759558265
  0.0685174528004394  0.2010228778858812  0.2898923413329160
  0.2223384309683724  0.5484989114702377  0.1275073634428037
  0.3363806333510829  0.5713541238393206  0.7078954508477119
  0.4515339727464400  0.2653094753581929  0.1154255404927483
  0.8408907310912360  0.1784614599790676  0.8504909233303022
  0.5899255289168909  0.0869239841386804  0.1753787724322154
  0.2908905618442177  0.9951296392244333  0.4508143567775048
  0.8825951108368385  0.5078893946784585  0.5713457636752788
  0.4218248780343715  0.1237585850949260  0.9534242072733107
  0.9135178248245459  0.3085184259707953  0.4506203629709876
  0.9059140296996583  0.2105232766542100  0.6027843545501502
  0.5303869130541342  0.9060419309488130  0.6303205067511198
  0.4951385191045555  0.7211782690021691  0.9984319032226388
  0.8838270295471763  0.4715255646822986  0.7958422985022436
  0.6683437351060627  0.9397292119555455  0.4579099055010869
  0.7500889081731141  0.7662964233793998  0.8914360497745900
  0.0896085723614829  0.8714124470005356  0.6890255762581559
  0.0559256295071000  0.7886367615700695  0.3128071685692320
  0.1317192950382682  0.8075761823141655  0.4946022551366868
  0.0355886195750143  0.5644802671548219  0.2290244713625263
  0.1924808307793266  0.8678230115271589  0.8644633600163497
  0.9925402756012061  0.6568730854928960  0.5284539420584429
  0.8223485993611722  0.7990544735898808  0.2139922377888675
  0.2589938608039073  0.3810289811568991  0.2727322639902219
  0.6545564961715845  0.8244583289092269  0.0711226138764992
  0.2792477640632696  0.1504244212270888  0.3181042713317106
  0.4278705356109299  0.5566905469951868  0.9332366879635831
  0.6109514444674187  0.8892341548466517  0.8339662256398056
  0.5381374980341000  0.3261189678805882  0.3063687293780092
  0.3994976628743093  0.5337794056715315  0.5250127230647761
  0.6723157223295094  0.7404776997094857  0.5749996766743279
  0.2957729495364467  0.4322964305644148  0.0171959648956137
  0.3858791560321793  0.9132838887216820  0.8436912239832605
  0.6462875786260175  0.6161352259727113  0.1533600498799703
  0.5173134917815404  0.2600128300416651  0.6344732354202075
  0.7947898431032239  0.2382579627927993  0.0910286714029221
  0.0923730819003885  0.3936211732810051  0.0535310572270473
  0.0101097503047644  0.7859913085269362  0.1206493129928222
  0.2065755460411765  0.0189800831386061  0.2243307230440194
  0.8891283323500506  0.7978007978559915  0.4389156064112686
  0.6995527080720448  0.5489791131615902  0.6199566336448702
  0.9235430514119751  0.3701645408336373  0.9598510594304518
  0.4136257030337527  0.8784081112431912  0.2722501582699123
  0.3491219560484652  0.7203864460281636  0.5377015017479544
  0.9216704297517097  0.6589294503383742  0.9621897833877663
  0.7433843456087982  0.4413406279862718  0.3837855520526390
  0.6328840282706386  0.4029182161683593  0.1834115784120638
  0.1764622359606804  0.3843637573476756  0.8470883677003240
  0.1757853293171761  0.2207178771953214  0.1127237561342065
  0.7052755700710597  0.0874548162352597  0.6787718047240675
  0.6393139388491362  0.5676271097000096  0.9118875145995511
  0.4902737203288821  0.7331810392245932  0.7675803073110720
  0.0939981422744723  0.2158866436160743  0.9012458312942527
  0.2897671951378206  0.8813756501440594  0.1193971453137337
  0.1193627418655652  0.2672948857862043  0.6824770937732264
  0.7165859044377046  0.3285411513746929  0.5732601254822941
