Sc Cl  C 
 1.0000000000000000
    13.7939866799999997    0.0000000000000000    0.0000000000000000
    -6.8969933399999999   11.9459428800000005    0.0000000000000000
     0.0000000000000000    0.0000000000000000   27.8102210700000008
 Sc  Cl  C  
  32  32  16
Cartesian
  0.0019090100000000  1.9131439900000000 15.1067095200000008
 -1.7510069200000000  5.0885828100000001 15.0041667899999993
 -3.5778636200000000  7.9374038499999999 15.1445256799999992
 -5.0317233000000003 10.9499524499999996 15.2055020699999996
  3.3638402599999999  2.0725337100000001 15.0916549599999996
  1.7265931800000001  4.9865141299999998 15.0377588800000002
 -0.0274361500000000  7.8689771000000004 15.0822911600000005
 -1.6550487400000000 10.8017242299999996 15.2579007799999999
  6.8982100900000001  1.9746420300000000 15.1283357299999999
  5.2361822099999999  4.9288024200000002 15.1210851200000000
  3.4360760500000000  7.8492380500000003 15.1914729899999994
  1.8126099700000000 10.8698779200000004 15.3151620000000008
 10.3313246000000003  2.0724680200000001 15.0738747300000000
  8.4961147300000004  5.0672809399999998 15.0391787699999995
  6.8842374399999997  7.9613644299999997 15.1408971599999997
  5.1276634400000001 10.8066240199999992 15.1584784399999997
  1.5986276500000001  0.8377032500000000 12.7367373300000004
 -0.1130431400000000  3.9538422899999999 12.5952904199999995
 -1.7906782900000000  7.0151412300000002 12.7112570100000006
 -3.4045747400000002 10.0265685199999997 12.7765390100000005
  5.0935990400000000  0.8689957600000000 12.6309540699999996
  3.4675263500000000  3.9698831999999999 12.4985711500000001
  1.7613943400000001  6.9941724799999996 12.5810337699999994
  0.0673952000000000  9.9316641899999993 12.6198264899999995
  8.7210693799999994  0.8763295700000000 12.6596595599999997
  6.8628520999999996  3.8999083899999998 12.6442333199999997
  5.1388055799999997  7.0838633099999999 12.7222816699999992
  3.4008360299999998 10.0707190400000002 12.6617808800000002
 12.0892962199999996  0.9578545500000000 12.7609883100000001
 10.2574891499999996  3.9917191600000002 12.6216658699999993
  8.5971793000000005  7.0361992400000002 12.6951415300000008
  6.9124921199999996  9.9075745699999995 12.7017334200000001
 -0.2682922700000000  1.8908417200000001 10.9298859000000004
 -1.8291792300000000  5.1464009300000004 11.0363941600000004
 -3.4553180700000001  7.9744878200000002 11.1673125300000002
 -4.9541862600000002 10.8724997800000001 11.0755866199999993
  3.3874796599999999  1.8127336800000000 11.0456354999999995
  1.5756969800000000  5.0001400900000004 10.8349420700000003
  0.0501084800000000  7.9744047000000000 10.9383826699999993
 -1.6283027200000000 10.9510187299999995 11.0603118899999995
  7.0150615500000004  2.0083460700000000 10.9306135100000006
  5.3493976500000002  4.8230102900000000 10.9088557099999992
  3.6330134200000002  7.8160520299999998 10.9380010399999996
  1.7953001300000000 11.0072133900000004 10.9067975599999993
 10.3198796999999995  2.0141632800000000 10.9970866399999991
  8.5533751299999992  5.0286027799999999 10.9998974500000006
  7.0628991499999998  8.0277192300000006 11.0051602000000006
  5.2652061400000001 10.7479525500000008 11.0050930600000001
  1.6368266700000000  1.1333077400000000 16.7906797499999989
 -0.2898416200000000  4.0847214599999999 16.7506900300000012
 -1.6327330200000001  7.0263494199999998 16.7777598599999997
 -3.2701163400000000 10.0419830300000008 16.9714988899999994
  5.0303348100000003  0.9584109000000000 16.7398488500000013
  3.3024443899999998  4.0826865600000000 16.7709873000000016
  1.6959450400000000  7.0892708799999999 16.9238285399999988
  0.1612983600000000 10.0148939299999995 16.9264851199999988
  8.5858647099999992  1.0338434400000001 16.8797188600000005
  6.9586883100000003  4.0757840900000000 16.8610737200000003
  5.2313021300000004  7.0848892899999996 16.8480206700000004
  3.2962615600000000  9.9322322500000002 16.9485299500000011
 12.2296012399999992  0.9058441300000000 16.7514167000000000
 10.4221557600000008  4.0891943099999999 16.8704582599999995
  8.6155857800000000  7.0796529599999998 16.9222656799999989
  7.1348333000000004 10.0672093399999998 16.8479085200000007
  6.8892321000000001 11.8508644000000007 13.9745829399999995
 -1.6945254500000000  3.0216836900000001 13.8277663600000000
 10.2670844500000005  6.0655201300000003 13.7730889199999993
  8.6262964699999998  8.8577418699999999 13.9953196799999997
 -3.4953497400000000 11.9270980899999994 13.9401002199999997
  1.6720527199999999  3.0192457899999998 13.7959788099999994
 -0.0510234300000000  6.1003333000000000 13.8367572499999998
 -1.6342279500000001  9.0958567000000006 13.9595090299999995
  0.0084303600000000 11.9280510500000005 13.9313258399999995
  5.0738384700000001  2.9776323599999999 13.8068167299999995
  3.3747831599999998  6.0773869600000001 13.8797057499999994
  1.7626625000000000  8.8833500999999995 13.9108474799999993
  3.3175409199999999 11.8949870700000009 13.9229627899999997
  8.6641270200000005  3.0383396999999999 13.8838327199999991
  6.8808382699999999  5.9691778900000001 13.8673145499999997
  5.2304103900000003  8.9122175099999996 13.9263159699999992
