Sc  F  C 
 1.0000000000000000
    13.1286234000000004    0.0000000000000000    0.0000000000000000
    -6.5643117000000002   11.3697213799999997    0.0000000000000000
     0.0000000000000000    0.0000000000000000   26.8280942399999986
 Sc  F   C  
  32  32  16
Cartesian
 -0.0409143300000000  1.9807227599999999 12.1241612799999992
 -1.6989900800000000  4.8323299100000003 12.1065959500000009
 -3.2460837499999999  7.6545823799999999 12.1474130900000006
 -5.0064649000000001 10.5055049300000007 12.0547380700000009
  3.3111030200000000  1.8666170700000000 12.1346706500000003
  1.5599586500000000  4.7957469000000001 12.1273305600000008
 -0.0220119800000000  7.6441678599999996 12.2252134300000002
 -1.6294757400000000 10.4146804199999998 12.2526342400000008
  6.5607015899999999  1.8456834600000001 12.1370762299999999
  4.9730627199999997  4.6882744599999997 12.0730055200000006
  3.3671585199999998  7.5821824400000004 12.0971398400000005
  1.7224530400000000 10.3225467700000006 12.1233546899999993
  9.8899266099999998  1.8755380100000001 12.0454552199999991
  8.2491080700000001  4.7804530700000001 12.0110202600000004
  6.4823859099999996  7.5959125700000003 12.1862177599999999
  5.0925863199999997 10.3629864699999992 12.1917685200000001
  1.6731310900000000  0.9583020100000000 14.6492124500000003
 -0.0368845600000000  3.7708166500000000 14.5968902899999993
 -1.7028220700000001  6.6568329700000000 14.7030530800000001
 -3.3578555899999998  9.4571221699999999 14.7910548800000008
  5.0080738199999999  0.8781252800000000 14.6428368800000008
  3.3688030000000002  3.6987769400000001 14.5946290100000002
  1.6405164900000000  6.6535437999999996 14.7601291900000007
  0.0230240500000000  9.5079715199999999 14.7666528499999998
  8.3349730999999991  0.8698216800000000 14.6139858599999997
  6.4631740000000004  3.7676542300000002 14.7696287700000006
  4.8282789299999997  6.6294812299999997 14.7254061200000006
  3.3059037899999999  9.5179663300000001 14.7463788200000003
 11.4938243300000007  0.9639219500000000 14.7508523799999995
  9.9448091099999996  3.6991315299999998 14.7116216699999995
  8.0916389899999999  6.5824202600000001 14.5915348500000004
  6.6818917300000003  9.5777520599999999 14.7551086399999996
 -0.1489534600000000  2.0102844499999999 15.8334158100000000
 -1.5275460700000001  4.8306147199999998 15.9159969500000003
 -3.3651022199999998  7.5603683400000001 15.8254958000000006
 -4.9024890799999996 10.4280791399999995 15.8459357599999997
  3.1880743400000000  1.9478912100000001 15.8438231599999995
  1.5747509700000000  4.9114160099999999 15.6633395199999992
 -0.0110674200000000  7.6224352199999998 16.0111494800000003
 -1.5095984899999999 10.5254166399999995 15.7288098400000003
  6.4232401399999999  1.8485610699999999 15.8176641700000005
  4.8863609500000003  4.5528720800000002 16.0012779599999995
  3.5185520600000002  7.7654316200000002 15.8105712300000008
  1.5265131800000000 10.4463944200000007 15.9731663000000008
  9.7727355800000009  2.0167057499999999 15.9870558299999992
  8.1661325300000005  4.8000803799999998 15.8099842400000004
  6.7980478700000004  7.6641555300000004 15.8889859799999993
  5.0318636300000001 10.5538792699999995 15.9355253399999999
  1.7154976399999999  0.9860145400000000 10.9274892500000007
 -0.0368841300000000  3.5945901700000000 10.9035066100000009
 -1.7223857100000000  6.5634198100000001 10.8741834900000001
 -3.3713771399999999  9.3314516899999997 11.0492811399999997
  5.0297608299999998  0.7322827500000000 10.8579225600000004
  3.1609155100000002  3.9132501199999998 11.0027302599999999
  1.7406438900000001  6.5649985400000004 11.0350740500000004
  0.0348346600000000  9.4927176899999992 11.0489517900000003
  8.1193602200000008  0.9113897700000000 10.9774054700000008
  6.4464142100000004  3.8155132500000000 10.9005940900000002
  4.9604753600000002  6.5737525300000001 10.9906945199999999
  3.4011899300000001  9.4339875600000003 11.0585713800000001
 11.3262916800000006  0.8023848600000000 11.0592804999999998
  9.7342610999999994  3.8578923700000001 10.9490483699999999
  8.1546487499999998  6.6229722899999999 10.7980881699999998
  6.4349879600000000  9.2799072200000001 11.0884991500000005
  0.0328304400000000  0.0677323300000000 13.4056136400000003
 11.4271905100000009  2.7465673100000001 13.3617230700000000
 -3.1804027900000000  5.7479498900000001 13.2421683899999998
  8.1221995899999992  8.5375590399999997 13.5074975500000001
 -3.4087102300000001 11.3421461600000004 13.3811483700000000
  1.5834653900000000  2.9263518700000000 13.3770293700000007
 -0.0902312700000000  5.6948442000000004 13.3591622099999991
 -1.6318380500000000  8.5798653199999997 13.4156167199999992
 -0.0087283900000000 11.3303582699999996 13.5019679700000008
  4.9166947499999996  2.7997589399999998 13.3353079799999996
  3.2369234200000001  5.5977251099999998 13.4410756599999992
  1.6732901400000000  8.5844062000000001 13.4795109600000007
  3.3293158900000002 11.3057326000000007 13.4321942900000000
  8.1896665700000000  2.7663457999999999 13.5362942200000003
  6.5383813499999999  5.6858731000000002 13.3577808299999994
  4.8696435800000000  8.4597488900000002 13.3911529999999992
