Ca Si  O 
 1.0000000000000000
    12.0937876200000005    0.0000000000000000    0.0000000000000000
     0.0000000000000000   12.0937876200000005    0.0000000000000000
     0.0000000000000000    0.0000000000000000   12.0937876200000005
 Ca  Si  O  
  27  27  81
Direct
  0.0240908447505877  0.4349431059382206  0.6048637854283735
  0.7838404532855523  0.4239808735784629  0.7636319919102400
  0.7338539321893599  0.5230845429713276  0.5113140096634176
  0.2656845837681413  0.0038795273634878  0.3304484563124815
  0.0456317513867504  0.8190420314326637  0.7031081781143432
  0.4639258168153609  0.6448130457577855  0.6819005161263118
  0.2589621364625882  0.7930924770117636  0.2282652760856073
  0.3826403336492525  0.6047254623444429  0.0371275339131514
  0.9947803589757432  0.6717207392137088  0.3705545037510755
  0.5436014800795717  0.9499343366176957  0.5813640921205461
  0.9780452056590688  0.2911810162910732  0.1890567721082570
  0.3237925514355940  0.7018304948536875  0.5001128066775163
  0.1014152090757486  0.5492964783848254  0.8053771114594783
  0.1136890569937096  0.1606820576860767  0.7647212594262507
  0.8005686220244704  0.1220503556354002  0.6463192405556730
  0.7784536173291920  0.6908863387167700  0.0208478020221757
  0.8288413452393668  0.8742002003173923  0.5308465512808468
  0.8958111991386203  0.5989388484068650  0.1692674011088678
  0.7672399748987819  0.6691954021597082  0.7474355589849526
  0.6640217756693167  0.1614748018867558  0.0158742757878859
  0.5480979977718511  0.0348818627592205  0.2722159743036731
  0.4921459419509799  0.8440871140417794  0.8796791951602007
  0.6513657571572271  0.3288322910039659  0.2777763514256256
  0.1125100351315744  0.0216285078106903  0.0958497607551008
  0.2112129533162746  0.4965223723682358  0.1480860923205132
  0.3572140015800939  0.0588866484493466  0.7909885100165170
  0.3958072979621251  0.2251712404388990  0.5487978488248002
  0.1938303221170672  0.7403258831165087  0.9661058162355922
  0.4432258344884015  0.3956325338546007  0.8371357425904590
  0.0341610505311652  0.7540245774549165  0.0995819504890561
  0.5218973929691020  0.7865550742985513  0.3836515412530455
  0.7936139513586067  0.4143650548081974  0.0491815681479612
  0.1407420531500949  0.2775749529823478  0.3454971776658337
  0.9466361118387161  0.1123413204109169  0.9260181757681635
  0.2747699277027654  0.2753799359344132  0.0670772230743043
  0.2221572731736131  0.9827628997175989  0.5787376056137490
  0.2240309541668634  0.3318821047727312  0.8419669503010505
  0.3790315758827589  0.2772645374104891  0.2940611528615549
  0.9815237701354640  0.0912118770942994  0.4250933133221336
  0.9471849407257906  0.3622032681271775  0.9306518026980203
  0.8703227037486209  0.6627574132974563  0.5944105325706058
  0.8842034510607686  0.3166602986864755  0.4964441462549844
  0.8891258146635124  0.9121416587270944  0.9575554329107691
  0.7614046830764504  0.1123407151414819  0.3525903318285657
  0.2622292584959417  0.4607319340373864  0.4654700857066977
  0.5591597159203296  0.5362394556421026  0.2865735962047595
  0.5473898747032899  0.2004443989070150  0.7389105928420462
  0.2649674676526195  0.8032675597787619  0.6891017836478263
  0.0696854886558691  0.9000488822872185  0.4145173371251908
  0.5106119682296851  0.4451306868575554  0.5260534118756089
  0.4062528815931034  0.0472639951982223  0.0706444471198676
  0.7004395203692191  0.9165623970168578  0.8196325387430609
  0.5647111587031491  0.5440378776884789  0.8982815542447899
  0.5632907418296469  0.8294824247955498  0.1553320464213675
  0.6808576459853526  0.5601815016824315  0.2408185732634852
  0.1656370024794598  0.8132349532693381  0.0940852035567663
  0.9553810123879123  0.4431598468900515  0.8306948563728788
  0.3084934560807179  0.4372034540490798  0.8088119179324567
  0.6701159202264872  0.2051977641724123  0.7223451787389664
  0.0598267575662950  0.1534824091776138  0.3306116938408746
  0.0693589094133605  0.9160232689781599  0.2863064317645095
  0.8109625981674051  0.3230958912771117  0.9184839273703073
  0.1991088818210949  0.5739866382737090  0.4912067886966912
  0.5655141015284342  0.5383073363413339  0.5982494101380623
  0.4834153669386168  0.2651279880835215  0.8304521292726323
  0.0617201495059825  0.6446073062427402  0.1823071463859558
  0.7967856574613802  0.5506125367199064  0.6523009157986189
  0.8304419422242177  0.6740556685912763  0.4497054620841771
  0.2470950974083667  0.3853508839772399  0.9790189353432683
  0.1450268737231223  0.3391106788759699  0.7385226655733186
  0.6252030792649226  0.7515410139143819  0.0598504383195047
  0.7710733761008447  0.8555202633862691  0.9804854411690090
  0.7601085738266007  0.2464851164634558  0.4278475488889064
  0.3579050282677281  0.9702827202450907  0.1730169319775106
  0.3442987797399406  0.9760210358316181  0.5539246950989536
  0.4752857360000505  0.4591870855096098  0.9659537207914024
  0.7470804378157253  0.5450077830951691  0.0592798337895734
  0.1873372190076544  0.3493234313965900  0.5296766746099019
  0.3823795253649410  0.3332660996406682  0.1833489994758152
  0.1442039222779075  0.2338547326003067  0.0974706723020823
  0.4848324382928100  0.2486359711681459  0.3489951446658528
  0.5316586698915422  0.4612067497180011  0.7689681812024411
  0.9049811906652284  0.1491862356683257  0.8080360121290108
  0.2707509055794052  0.1875866222628441  0.3178891692824353
  0.6902130649454881  0.5327903633220905  0.8626632638022133
  0.4376880962624347  0.7702068278920216  0.1578078076089119
  0.9969820414293004  0.8861633358168729  0.0301830990810801
  0.5867537154584165  0.4513060177254874  0.3910245829172251
  0.4607840831258123  0.6569007906887653  0.3623024190332194
  0.9683158261051057  0.1910465515517297  0.5086300051960067
  0.3796095552734702  0.4656969898070692  0.5262129185628944
  0.1816923935695838  0.8517554875004494  0.6095858594215995
  0.9947416696904091  0.6933737149586228  0.9799641280619743
  0.1557313679698966  0.0301738513579090  0.4779632263791978
  0.5893989338966082  0.9531512725539329  0.1068136948149913
  0.9626545318810551  0.9667741304357386  0.4856668948185151
  0.3820913245043409  0.8232748666376861  0.7209610796853070
  0.2679883938626665  0.2041459216562627  0.8674714712742739
  0.0331488374524639  0.7947283739384866  0.4761515937717451
  0.6227808091771335  0.8286917279270032  0.2951751628328991
  0.5308616234820237  0.7512630778280527  0.5200601116559048
  0.8928156694387197  0.1079582419523256  0.3210472014225763
  0.4781257941422325  0.4885314953132938  0.2032474678102542
  0.3362478048874485  0.7909962272018136  0.9620575675364803
  0.9483990864063148  0.9050162764475601  0.8305274530693305
  0.5054980633106239  0.6621794330798741  0.8975479263460060
  0.4709612537416131  0.1283434610206922  0.6746450439155306
  0.2978252159847338  0.6692397745281391  0.6990114871886597
  0.3525333389309180  0.0032919198890314  0.9633341990174621
  0.9484265120574360  0.4815684550610622  0.0276280409825818
  0.7706930047776049  0.3274941610062770  0.1516607127254976
  0.5880580628221748  0.9962056312346587  0.8748438026564254
  0.5469810416598005  0.3267470336146022  0.5933364397877527
  0.8570052183535865  0.0314495583973220  0.9996831935436287
  0.3226838433599019  0.4106917457179556  0.3473858390776007
  0.1716378007636949  0.7822760261106685  0.3574437889789898
  0.7277323388286853  0.0305488562895732  0.4592149965338981
  0.9463385508005142  0.2242362661896985  0.0144566686214058
  0.5228555278697709  0.1513370415876379  0.0995306671343713
  0.7371007016245255  0.9492292299738598  0.6940888159899735
  0.0944444417157708  0.3514194662201287  0.9079400899881190
  0.2174835545855236  0.6295853936948829  0.0079920131754389
  0.8617396945821345  0.7851235699143194  0.6630211462238329
  0.6712389182835674  0.7964618019313291  0.7676453880045895
  0.1559628082835475  0.7527427044398518  0.8434011130749458
  0.1232505983100768  0.3975440871848219  0.2855612061757043
  0.9383578591402451  0.7762781847164603  0.2054672818869958
  0.9297835866907673  0.4320005827917789  0.4715973183263161
  0.8663803573557379  0.3164234737900912  0.6352398935214640
  0.0650922303859674  0.0437862344402572  0.9291878940735029
  0.0128728058480657  0.6284717367973756  0.6269490219475179
  0.3455147891872770  0.1673271098835453  0.0641327476858734
  0.1829592117477585  0.0211847171498452  0.7055093142110264
  0.4498415335988842  0.8844129453961751  0.3753105654421935
  0.6830195873739017  0.1530155603972811  0.2621975058298568
