Sc Cl  C 
 1.0000000000000000
    13.7939866799999997    0.0000000000000000    0.0000000000000000
    -6.8969933399999999   11.9459428800000005    0.0000000000000000
     0.0000000000000000    0.0000000000000000   27.8102210700000008
 Sc  Cl  C  
  32  32  16
Cartesian
 -0.0468112500000000  2.0052884199999998 15.0517220399999996
 -1.6929979200000000  4.7975905599999997 15.1022448600000008
 -3.3099897899999999  7.9079682199999999 14.9849483200000009
 -5.2106741100000002 10.8819247200000007 15.1644383600000001
  3.3943826499999998  2.0240289900000001 15.2065226700000000
  1.7653977900000000  4.9517812799999996 15.1378880700000007
 -0.0048601800000000  7.9935701999999997 15.2000069599999996
 -1.7902775700000000 11.1294802599999993 15.1898273400000008
  6.9750327499999996  2.0995911000000000 15.1312154900000007
  5.2027180299999998  4.8910418800000004 15.0552364099999991
  3.4502736600000001  7.9334141499999999 15.2384788300000000
  1.7742341500000001 10.8881347999999996 15.1928084800000001
 10.2947209900000001  1.9618509799999999 15.1113569699999992
  8.5543486099999999  4.8733406700000002 15.0421350900000004
  6.8152910799999997  7.9443394500000002 15.1425338400000005
  5.1326076100000000 10.8381163699999998 15.1842382800000006
  1.7829702599999999  0.9879259600000000 12.6318412500000008
 -0.0233876200000000  4.0141998699999997 12.7074412799999994
 -1.6874054599999999  7.0571921299999998 12.5019460200000001
 -3.3155108700000002 10.0381309600000002 12.6830344600000000
  5.2729771300000001  0.9504590300000000 12.6606571300000006
  3.3433226299999999  3.8383741300000001 12.6618881000000005
  1.6470636700000001  7.0291707800000003 12.7698421700000004
  0.0741653800000000 10.1191065200000008 12.7464750400000000
  8.6822915999999992  0.9048389900000000 12.6726767099999993
  6.8730812999999999  3.9588346300000001 12.6160093100000008
  5.1170216300000000  7.0288173799999996 12.7596731600000002
  3.4424445200000000  9.9458101400000007 12.7196222500000005
 11.9971600400000007  1.0443556500000000 12.6878963200000001
 10.3692473300000003  4.0583296000000004 12.6173657600000002
  8.4740886199999998  6.9616771399999999 12.6325489399999995
  6.9057718299999999  9.9266488400000004 12.6946345199999993
 -0.1741843700000000  2.0988512099999999 11.0863781100000001
 -1.7998565799999999  4.9871309400000001 10.9279761600000000
 -3.5136102600000001  8.0324730800000008 11.0482713500000003
 -5.1974642299999996 11.0579774299999993 10.9956882500000006
  3.5916509200000002  2.0693353999999999 10.9787644100000001
  1.7141658399999999  4.9531941599999998 11.1017759199999997
  0.1179319000000000  8.0043768899999996 11.0258360900000003
 -1.7840823200000000 10.9561832500000005 10.9438423500000006
  7.0879211499999997  1.9314380200000001 10.8290094200000002
  5.2105129999999997  5.1075928099999999 10.9389420499999996
  3.3643708900000000  7.9665941299999998 11.1284196299999998
  1.8989732600000000 10.7742557899999998 11.0576011100000002
 10.2953898699999993  2.0447023799999999 10.9111496100000007
  8.6064274600000008  4.8653697300000003 10.9520871399999997
  6.9683022899999996  7.9794551900000004 11.0303956000000003
  5.1271716700000001 10.9908094399999996 11.1219205100000007
  1.6690423599999999  0.9597775400000000 16.8551753499999997
  0.0844679000000000  3.8535032299999998 16.8009544400000017
 -1.6713008800000000  6.8401118099999998 16.8076082800000002
 -3.4985790200000002 10.0039707300000007 16.8426381399999983
  5.1726426800000000  1.0696651600000000 16.8430946299999995
  3.6233055699999999  3.9639450900000002 16.8247838799999982
  1.8359841699999999  6.9763293500000003 16.8956596700000006
 -0.0575794500000000 10.1384187200000007 16.8526020699999997
  8.3894657099999996  0.9190121100000000 16.7499840499999983
  7.1299171599999998  4.1304102499999997 16.8865977100000002
  5.1218592500000000  7.0710916900000003 16.8480001600000016
  3.3204920400000000  9.9269655399999994 16.9542856999999998
 11.9774091800000004  0.8735782600000001 16.6630682300000004
 10.3418148199999997  3.8752851499999998 16.8132296200000013
  8.6134769299999991  6.8537504399999998 16.5930224099999997
  6.7801358699999996  9.8809883900000006 16.7598157400000005
  0.0800713200000000  0.0114786200000000 13.8346061700000007
 -1.6832355999999999  2.9981349900000001 13.8023173299999993
 -3.3186458200000000  5.9952795200000004 13.7549924400000005
  8.5280345499999992  8.9535259099999998 13.9215333000000001
  3.4461299900000002  0.1684285900000000 13.9994710999999992
  1.7281927800000001  2.9660010699999999 13.9292040700000008
  0.1060008600000000  6.0178253899999996 13.9529818599999995
 -1.7233985700000001  9.0555981600000006 13.9509361799999994
  0.0075295700000000 11.9373582099999993 13.8664307200000003
  5.2648387699999999  3.0118823300000002 13.9441475399999995
  3.4332703300000000  6.0021015599999998 13.9301632099999999
  1.7524941100000000  9.0345807699999998 13.9463050800000001
  3.4686520299999999 11.9433070499999996 13.9638485299999999
  8.6515758999999992  3.0164530200000002 13.8051428499999993
  6.8498210999999998  5.9523478599999997 13.8745010000000004
  5.1563149099999999  9.0004171900000003 13.9361413699999996
