Sc Cl  C 
 1.0000000000000000
    13.7939866799999997    0.0000000000000000    0.0000000000000000
    -6.8969933399999999   11.9459428800000005    0.0000000000000000
     0.0000000000000000    0.0000000000000000   27.8102210700000008
 Sc  Cl  C  
  32  32  16
Cartesian
 -0.0714188100000000  1.8966818599999999 15.2346980999999992
 -1.7082444400000001  5.0476106500000002 15.1616550599999993
 -3.5094678899999998  7.7999372600000001 15.0739898599999993
 -5.0313973599999997 10.9370262599999997 14.9937206700000001
  3.4616461200000002  2.0065748200000000 15.2104274600000000
  1.6466819399999999  4.8146418200000003 15.3028012600000007
 -0.0465764300000000  7.8599693700000000 15.0608808500000002
 -1.5933489900000000 10.8558158599999999 15.0056009699999997
  6.9642818899999996  2.0548690399999998 15.2647870099999992
  5.2102905100000001  5.0567481599999997 15.2033172600000004
  3.3955968400000001  7.8876470300000001 15.1282707799999994
  1.6887865799999999 11.0341487499999999 15.2779430099999995
 10.3252105299999997  1.8551481900000000 15.2980714300000002
  8.5770012199999996  4.9691686300000004 15.0681362100000005
  6.8365248500000000  7.9106130700000001 15.1008767899999992
  5.1783989100000003 10.8556786899999995 15.0770844299999993
  1.8443837199999999  0.9450260800000000 12.7312293299999997
 -0.1027574600000000  3.9901971600000001 12.5949241399999998
 -1.6200230700000000  7.0382068400000000 12.4921039000000000
 -3.2945120800000001 10.0158897800000002 12.5457542600000007
  5.2585350599999998  1.0206961400000001 12.6441984000000005
  3.4319188899999999  4.0288973900000000 12.8054776300000004
  1.7168889400000000  6.9555745900000003 12.7830635400000006
 -0.0584566200000000 10.0086015699999997 12.7680376300000002
  8.5511594599999992  1.0078803500000000 12.7524521400000008
  6.8199564700000002  3.9180263399999999 12.5276729600000003
  5.1835605200000003  6.9230936500000002 12.5255266400000007
  3.2924810600000001  9.8530976599999995 12.6834484199999995
 12.0536009400000008  0.9799048200000000 12.7353355500000003
 10.2573422700000005  3.8214203400000000 12.6627451799999999
  8.6918256100000004  7.1089565500000003 12.6515652200000002
  6.7807686900000004  9.8479512099999997 12.7217069299999999
  0.2309651900000000  2.1592082800000001 10.9531144900000008
 -1.8416705400000000  4.9457441099999997 11.0032077200000007
 -3.4744003299999999  8.1065172200000006 10.8710718100000001
 -5.0853703699999997 10.9478728800000003 11.0605905300000007
  3.5495505700000001  2.1560100400000000 11.0538234299999996
  1.6262734400000001  5.1475512999999999 11.0918951400000001
  0.0191469700000000  7.8983813800000000 10.8860025999999994
 -1.6906365100000000 11.0249362400000006 10.9312441600000003
  6.6100653999999999  1.9450385200000000 10.8623860499999996
  5.0738348699999998  5.0195771799999997 10.9829748200000008
  3.4630620200000002  8.0321031800000000 10.9136480999999996
  1.7831315999999999 11.0342944099999993 10.9545843000000005
 10.2403647800000002  1.9266255900000000 10.8871853200000004
  8.6597031999999992  4.9656454800000001 10.9618532399999999
  6.9282652599999999  8.1143746500000002 10.8407864400000005
  5.2045960600000001 10.9165738399999999 10.9605128900000004
  1.9427141600000000  0.9077780700000000 16.8024838900000013
 -0.0295276500000000  3.8993798399999999 16.9589825400000009
 -1.7389391700000001  6.8857303999999999 16.7661441999999994
 -3.2768717100000000 10.1070573800000005 16.6605667900000007
  5.1206348400000001  1.1007105399999999 16.8989577900000008
  3.3647646800000000  4.0072461199999996 16.8699118500000012
  1.5597728799999999  6.9096610199999997 16.8457226700000007
 -0.1320831200000000  9.8881514199999998 16.8763548599999993
  8.6826609599999998  1.0686540000000000 17.0401959699999992
  6.9833262400000002  4.1113864700000002 16.8640866799999998
  5.2233067200000001  6.9875399500000004 16.9190313500000009
  3.3874643700000000  9.9741039399999991 16.8491092100000017
 12.0957144599999999  0.7686144400000000 16.8661234799999988
 10.3531346400000004  4.0665958900000003 16.8670033500000009
  8.6843799599999993  7.1089589200000001 16.7699285300000014
  6.8948362599999999  9.8532282900000006 16.6649274299999988
  0.0791432000000000  0.0853488200000000 13.8396365400000008
 -1.7149064500000000  3.0142849400000000 13.8939812499999995
 10.3468577300000000  5.9682340399999996 13.8600450399999993
 -5.1471290700000001  8.9403246500000009 13.9016509900000003
 -3.3030757899999998 11.9157456699999997 13.8927667800000005
  1.7479499999999999  2.9395527499999998 14.0585970099999997
  0.1075526800000000  6.0294489999999996 13.8696695000000005
 -1.6351959000000000  8.9491820900000008 13.7328436499999995
  7.0863218400000001  0.1591815900000000 13.9723674100000004
  5.1761865399999998  3.2348877400000000 13.9485663800000008
  3.5383733400000001  6.1068380500000004 13.9557982000000003
  1.5937028099999999  9.0108653800000003 14.0969267200000008
  3.4480108999999999 11.8974152800000006 13.9565226199999994
  8.6005256899999996  2.9679933100000002 13.9881253399999999
  7.0253040899999997  6.0699962500000000 13.7986603900000002
  5.0825593500000004  8.8733200399999994 13.9278742399999995
