Sc  F  C 
 1.0000000000000000
    13.1286234000000004    0.0000000000000000    0.0000000000000000
    -6.5643117000000002   11.3697213799999997    0.0000000000000000
     0.0000000000000000    0.0000000000000000   26.8280942399999986
 Sc  F   C  
  32  32  16
Cartesian
 -0.0618006200000000  1.9228811200000000 12.1672675300000002
 -1.7046269400000000  4.7627551700000001 12.2241093099999993
 -3.2898507499999998  7.5326280700000003 12.0674695799999991
 -4.9141611799999998 10.3458483200000000 12.1651238999999993
  3.1918125000000002  1.8698029500000000 12.2111741299999998
  1.6056466700000001  4.6957143200000004 12.1012920899999994
  0.1297518400000000  7.5560695000000004 12.1806182700000001
 -1.7378739100000000 10.4559440200000004 12.2006018399999991
  6.4598030800000004  1.9038255200000000 12.1595327900000001
  4.8881990399999999  4.7506608500000000 12.1494223800000007
  3.3363189400000000  7.5752123400000002 12.1629380499999993
  1.6454430900000001 10.3713058399999998 12.0533079599999997
  9.7421334399999999  1.8833305300000001 12.0649433100000003
  8.1824072399999999  4.6940164800000002 12.2160237600000006
  6.5631337399999996  7.5669631400000004 12.1864253300000005
  4.8873046400000000 10.3350783499999999 12.1130882000000000
  1.5912457000000000  0.9345816600000000 14.6440913899999998
  0.0037183500000000  3.8160674000000001 14.7367025799999993
 -1.6355856499999999  6.7371397499999999 14.6942991099999993
 -3.2292384400000000  9.5056850599999994 14.6705477399999999
  4.8937598900000001  1.0112601200000000 14.6833965899999992
  3.3230218499999999  3.8058817100000000 14.7039621399999998
  1.7556725399999999  6.5783570600000001 14.7011882400000005
  0.0423750500000000  9.5002213900000001 14.6721945900000001
  8.1818956099999998  0.8607248300000000 14.5452837400000003
  6.5204579899999997  3.7586457800000002 14.6482830899999996
  4.9144637600000003  6.6122444199999997 14.5438916900000006
  3.3790461600000001  9.5114377599999997 14.7277278999999997
 11.4422078799999998  0.9294945400000000 14.6878268199999997
  9.8521967799999999  3.7921543099999999 14.7390154700000000
  8.2564256900000004  6.6949793900000003 14.7131553600000000
  6.6388578499999999  9.5160661100000006 14.6649603600000003
 -0.0974938000000000  1.8875860799999999 15.8059611199999992
 -1.6772026300000000  4.8276916600000002 15.8651998899999995
 -3.3937499400000002  7.6193401700000001 15.8683852200000004
 -4.7847515200000004 10.4104072700000003 15.8595452699999999
  3.2232516300000000  1.8382272399999999 15.9021243299999995
  1.7915578500000000  4.6832882700000003 15.8881275700000000
  0.1665499200000000  7.7301771500000003 15.8753358299999991
 -1.5955511200000001 10.4040576300000005 15.7864412499999993
  6.4575248099999998  1.9124139400000000 15.8506350200000004
  4.8097604000000000  4.8310855999999998 15.7740982699999996
  3.5730826699999998  7.6741205299999997 15.8624759100000006
  1.6779711700000000 10.5065113100000005 15.7321485800000005
  9.9752975100000008  1.8520763700000000 15.8803665800000005
  8.2635518799999996  4.7783478199999996 15.7837470399999997
  6.5441260200000002  7.5073741199999997 15.6773051900000002
  5.0019407300000003 10.4323723899999994 15.8295788900000005
  1.6223197899999999  0.9542938300000000 11.0463503900000006
  0.0380621400000000  3.7524073300000000 11.1466713599999991
 -1.3994548400000000  6.5651752099999996 11.1015758699999996
 -3.2766401699999999  9.3737661699999997 10.8923826899999998
  4.7184727899999999  0.9157758499999999 11.0370659999999994
  3.3641232599999999  3.7496474900000001 11.0542764600000005
  1.7266293900000000  6.6699058600000001 11.0157319299999994
 -0.1057035800000000  9.4561941500000000 10.9063744000000007
  8.0585409699999992  0.9540545700000000 11.0846933700000001
  6.4854267300000004  3.8074165500000001 11.0237078099999994
  4.9740862999999997  6.6642754499999999 11.0332092300000006
  3.3249435900000002  9.5496038300000006 10.8542483300000008
 11.4705396499999992  1.0238817000000000 11.0475758000000006
  9.7815817999999997  3.8670629100000000 10.9741799800000006
  8.1735558400000006  6.5728354199999997 11.0641678999999993
  6.5053234599999996  9.4320488099999995 10.9644737800000005
  6.5246583200000003 11.3310435799999993 13.4516185600000000
 11.4162682699999998  2.7952328700000000 13.4321077399999993
 -3.1774306700000001  5.7266773000000004 13.4597310700000001
 -4.8435214999999996  8.4901277000000004 13.3433126800000004
  3.2245238199999999  0.0612113800000000 13.3850639000000005
  1.5618862499999999  2.7915591900000001 13.3816424499999993
  0.1364108100000000  5.7686403500000001 13.4745652099999997
 -1.5824900099999999  8.5173171100000005 13.4149792600000008
 -0.1596074700000000 11.3001640800000001 13.3822335300000006
  4.8709490400000002  2.8271221000000000 13.4324763399999991
  3.3663577000000000  5.6389541799999998 13.4196945400000001
  1.6790370699999999  8.6198173699999998 13.4627658399999994
  3.2579175399999998 11.3338331700000001 13.2414419500000005
  8.2351752699999992  2.8669436500000001 13.4390112899999998
  6.5348692899999996  5.6803143199999999 13.3476935500000007
  4.9763541499999997  8.6043814300000001 13.3646876799999994
