Sc  F  C 
 1.0000000000000000
    13.1286234000000004    0.0000000000000000    0.0000000000000000
    -6.5643117000000002   11.3697213799999997    0.0000000000000000
     0.0000000000000000    0.0000000000000000   26.8280942399999986
 Sc  F   C  
  32  32  16
Cartesian
  0.1039547400000000  1.9937640000000001 12.1676338099999999
 -1.6760194700000000  4.6140595400000004 12.0192414099999993
 -3.2854164699999999  7.4459558399999999 12.2156334799999993
 -4.8353334099999996 10.3120493700000004 12.1260535199999993
  3.3659713700000000  1.8796791500000001 12.1184168600000000
  1.5568439500000000  4.6505185999999998 12.2136165200000004
  0.0071382100000000  7.6698514600000003 12.0989803400000007
 -1.6456785199999999 10.4707410700000008 12.0675395999999999
  6.5073763900000001  1.8964662500000000 12.1330682500000009
  4.7851025800000002  4.6545885000000000 12.0751165799999995
  3.2443304500000001  7.6379975499999997 12.1383730599999993
  1.6618970200000001 10.5022555499999992 12.2536654899999995
  9.9020471200000006  1.8940920400000001 12.0436943200000002
  8.1839145700000007  4.7167102200000004 11.9922676599999996
  6.5838832199999997  7.5106576399999998 12.0334471500000006
  5.1288241200000000 10.4880106800000004 12.2638057699999994
  1.6093833300000000  0.8808561200000000 14.8470258400000006
 -0.1094736900000000  3.7511661200000002 14.8030138200000003
 -1.6315928300000000  6.6623540099999996 14.6863454400000002
 -3.2807943800000001  9.4387602699999995 14.6180560899999996
  4.8984176899999996  0.8544868200000000 14.8850253200000004
  3.1971095799999998  3.8125005399999998 14.7463300900000007
  1.5382347599999999  6.7064067300000003 14.6423383600000001
  0.0458715600000000  9.4433908300000002 14.7085078300000003
  8.2270101600000007  0.9821716600000000 14.6548050199999995
  6.5223641800000003  3.8232776500000001 14.6361591799999999
  5.0887212399999999  6.6764501999999997 14.5793239000000003
  3.3758255699999999  9.5398095400000003 14.6734569300000004
 11.5339865699999997  0.9911599600000000 14.6541965199999993
  9.8617177799999993  3.8553967099999999 14.7079580399999994
  8.2706985100000008  6.5023218399999996 14.5996444600000004
  6.6512754400000000  9.3913757400000009 14.7597623799999997
 -0.1025138200000000  1.9188296899999999 15.9321520999999997
 -1.6878827000000001  4.8579606300000000 15.7428803399999993
 -3.3281234099999999  7.5293351299999998 15.8779488299999993
 -4.8456577400000000 10.3228734400000004 15.9161202799999995
  3.2477362300000001  1.7452651500000000 15.9341106499999992
  1.5914875799999999  4.5553414600000002 15.8445113600000003
 -0.1304293100000000  7.5255590600000000 16.0308541300000016
 -1.6603120300000000 10.4695436300000004 15.9721489800000001
  6.5154710299999996  1.9946037299999999 15.8455079199999993
  4.6546713600000000  4.8263678299999997 15.7645978299999996
  3.2850855299999999  7.6454100100000000 15.8750285299999998
  1.5546246600000000 10.4594812200000007 15.7536909600000001
  9.7714229899999996  1.8309479700000000 15.8817162799999991
  8.0811978700000004  4.7053123000000001 15.7587509299999997
  6.6764255400000003  7.4223394000000003 15.7661585100000003
  5.1084342600000001 10.5920578200000008 15.8718965300000008
  1.9006646599999999  1.0195438800000001 11.0349797299999999
  0.0047731200000000  3.6701741700000001 10.9613780100000007
 -1.7529490200000000  6.7097756400000002 11.0639520999999998
 -3.2915248699999999  9.2682420400000005 10.9749871100000007
  4.8897001500000004  1.0914916299999999 11.0121532799999997
  3.3211810900000001  3.6825464100000000 10.8856686699999994
  1.6218656100000000  6.7777590800000000 10.9538502500000003
  0.1832335800000000  9.5276116099999992 11.0268086499999995
  8.2020507200000008  1.0936796900000001 10.9980677599999996
  6.5709591200000004  3.7429981400000001 10.9550937400000006
  4.8333209400000001  6.7592397599999998 11.0913934399999992
  3.0937639899999998  9.4691004799999998 11.0174199099999992
 11.4419093899999993  1.0161569500000001 10.8044418699999998
  9.8534081499999999  3.9058613000000002 10.9100444999999997
  8.1740199800000006  6.7731912400000001 10.8697833599999996
  6.5097472200000004  9.4706358599999998 10.9907564799999999
  0.1244509200000000  0.0812786700000000 13.4798593400000009
 11.4144135599999998  2.8900649100000000 13.3190121900000005
  9.8147532599999998  5.6866300299999999 13.3861157100000003
  8.1586708199999993  8.5716081400000004 13.4292461700000008
 -3.2051082100000001 11.3265986099999996 13.4348444899999997
  1.6407206999999999  2.7586804699999998 13.5682997099999998
 -0.0637419100000000  5.6358522600000001 13.4400842600000008
 -1.6623003300000001  8.5530278600000003 13.4195587500000002
  6.5300070200000002  0.0330711700000000 13.3635394900000009
  4.7883216600000003  2.8137397300000000 13.5890597999999994
  3.1017741100000000  5.6352963699999998 13.3272243400000008
  1.6633806600000001  8.5232227100000006 13.4933255100000000
  9.9483592200000004  0.1199937900000000 13.4014347600000008
  8.2925897400000004  3.0353243600000002 13.4519040600000004
  6.5374609599999998  5.6237343199999996 13.3320966900000002
  4.9538837800000000  8.5630603099999991 13.4050663700000001
