Ca Si  O 
 1.0000000000000000
     9.9419483500000005    0.0000000000000000    0.0000000000000000
     0.0000000000000000    9.9419483500000005    0.0000000000000000
     0.0000000000000000    0.0000000000000000    9.9419483500000005
 Ca  Si  O  
  27  27  81
Direct
  0.8578700089505092  0.2081998253390644  0.7777350352056496
  0.0509319805508746  0.6618315332527351  0.4214272497201215
  0.3985791175428909  0.2237062396325968  0.2891716682475020
  0.1086487378502625  0.7789910646638996  0.9763363636867013
  0.7159557391987457  0.4986568583410514  0.1343081741115664
  0.6087330347074273  0.2325891111675309  0.0667287966749495
  0.0620835140427983  0.9127445336205151  0.5066086940594496
  0.5434550673359715  0.6377990296036893  0.9213768164466474
  0.2989484199040322  0.9801162062967266  0.2073556205912094
  0.2634231327504332  0.6637835429913493  0.2261134197101315
  0.3403781734593300  0.0649580481878082  0.7588413150426395
  0.6881287750805907  0.3661590597581409  0.5852199896009317
  0.0502970838708893  0.0812867268617423  0.9729011175158639
  0.7955169843544802  0.6720105682303208  0.7251530621761880
  0.1815155094826056  0.3768331757627769  0.1103995777648553
  0.3334919075494895  0.7396211588647007  0.7312792285829970
  0.5350395699852937  0.7799194973689438  0.5265558787579097
  0.0721658315595655  0.9481423065329040  0.7244691529704034
  0.5887698259868751  0.0513240807572693  0.5123589522570795
  0.4843826471900752  0.5088978620573904  0.4147814769124203
  0.9921887413547064  0.5024097132832117  0.8873947469260389
  0.4370077138853774  0.3683142359113141  0.8318244853887216
  0.9410181606908066  0.3337467097181208  0.3274701633307117
  0.1973744472329712  0.5077499230822297  0.6491727207574961
  0.8204490883318659  0.9473935378069027  0.6858950066864912
  0.1330959097167307  0.1964605358264610  0.5380464795916989
  0.8357219508186240  0.0211769828798195  0.2023253429997954
  0.5155702885943880  0.5560762202109006  0.6680145768409670
  0.0456353215715509  0.7069467626031269  0.7029136336239366
  0.2504817388233565  0.5712444643710103  0.9231662212367057
  0.9480405387541567  0.4029313580169625  0.6131430696881462
  0.7477581675426829  0.5848612601170876  0.4136917629430251
  0.8146175643730840  0.7513959132567812  0.9949656920114658
  0.7107771335384175  0.4407940270580866  0.8669184094081519
  0.5697063191844081  0.9957655050581710  0.2024408465167696
  0.2960832581673993  0.7289636723972721  0.4628642121239747
  0.4273946876821181  0.4507337025141556  0.1405487255423128
  0.8691621869067545  0.1235622683555784  0.5232830997356771
  0.6621275305659780  0.2757401118463867  0.3367926187224660
  0.7797160100917241  0.0006530148590040  0.9435168238426827
  0.9759653931414760  0.8510016560285187  0.1986698472437749
  0.9951104081123092  0.5476378913193609  0.1790902786172692
  0.3468508343236364  0.8756603296978503  0.0114679372680507
  0.5469010930840331  0.7344481617629808  0.2069152018879679
  0.3280663462710506  0.9888762980749141  0.4758685102201320
  0.7773291097413516  0.8692636046535084  0.3751856083621677
  0.4008031645024589  0.2770036700100136  0.5720974510997133
  0.0962647014757424  0.1185078958894410  0.2615871968395410
  0.1289048448939085  0.2718154857443008  0.8123958841528282
  0.8900378133628103  0.2926514509603140  0.0491175796542938
  0.5743604702995666  0.1324755695396466  0.7887560590676373
  0.3424331026624173  0.1682604114514435  0.0210288087042818
  0.5900158734982766  0.8696299845492559  0.7789334441674101
  0.2066726528507865  0.4336745905544762  0.3878865604848973
  0.3222487883876403  0.0225035488139505  0.9619366640543853
  0.6584302763954714  0.8524183129557297  0.6343491152818149
  0.2081646320361340  0.8784910766509867  0.8196156702021088
  0.2691708441635587  0.5804397595769043  0.4176268175845029
  0.3696782019592769  0.5595192093308350  0.7698575360231076
  0.0642944629661046  0.7177353461105036  0.2241663436121150
  0.8172357765266403  0.3949376723527235  0.9802992790643495
  0.1294788832814646  0.5774133638503564  0.0534438745097685
  0.4320003583603410  0.7413766950418728  0.3359545355111405
  0.2723176257498863  0.2651915476909513  0.7071507527998775
  0.7795997049210178  0.5879846750561725  0.9178904696281187
  0.0055343166211480  0.1135718251845474  0.3977519999890162
  0.9944185507662590  0.5639028500887353  0.6703367403834883
  0.1099758811360149  0.1122265325387654  0.7888706372126747
  0.4205967706521026  0.9591624050229550  0.3584087700475732
  0.7768028114931819  0.7400595437613594  0.4677383100667586
  0.4950791159561797  0.8971800220627780  0.9304883795740098
  0.6848214776734382  0.9891188652171985  0.0583990330225363
  0.2060165339724381  0.1564231582434242  0.1424694536861077
  0.6233443085630193  0.1311818392216854  0.2726695376565701
  0.8344994268653588  0.7795142106124500  0.2268952020858165
  0.4777649956308614  0.0805470589675715  0.1085476208493881
  0.4745422299442946  0.8773742120677984  0.1419545908222306
  0.3156893859743297  0.3737973462716692  0.4841696476928489
  0.2485014981997970  0.8220325425448424  0.1042102295773846
  0.0273149618605693  0.2839785433003180  0.9465009411359495
  0.5461967100241474  0.4011917482954938  0.2391882120369294
  0.9390127579972792  0.9088097646373308  0.3455314611446357
  0.8921276099769719  0.8856048522923579  0.0571620833254480
  0.6359279003898667  0.5899770400637819  0.5605302505921789
  0.8088482093150282  0.9740182144478754  0.4641086704096586
  0.2236331614014068  0.0439485596402238  0.3638525400305464
  0.7991283147231397  0.1821852484276887  0.3917972376108753
  0.3637321461240542  0.4929294367134788  0.9822337892149681
  0.8684497842920296  0.5528804210695784  0.2716256205454939
  0.9604944346748694  0.0709991185983178  0.6158513899340464
  0.3962726893466511  0.6493428182012231  0.5639761154059908
  0.7299144960856692  0.7952517576698133  0.8701692007884954
  0.9374457241069856  0.7635311855145576  0.8287463804818499
  0.4786782814054752  0.5923106772124802  0.1126896751580891
  0.6344409443647934  0.9055533063597135  0.3176868194049710
  0.3308780476615532  0.4505941936421345  0.2558445256859537
  0.6463370713447731  0.6390414641411811  0.3055756953313885
  0.0578854707085659  0.4292535426418705  0.4808960971920559
  0.5880673489920112  0.4172914889464297  0.9750968702226260
  0.9106584576050427  0.6379977451804002  0.0692109238326510
  0.5632841846336890  0.2533284444190459  0.4768960241077896
  0.8375966547844718  0.1447809895331029  0.0108395976529087
  0.9436434046652435  0.7804287647501207  0.5907594822698913
  0.8344578655953286  0.4132402910743346  0.7674067618747989
  0.5331185199729990  0.7192810210083218  0.7399328291622034
  0.4658627964004661  0.4198957923574407  0.6241088156528192
  0.6435018735537889  0.7393552321160469  0.0853778635854611
  0.2227938269262885  0.0347884024161119  0.6041937785766106
  0.3290731569733009  0.8525763031146706  0.5711075455345732
  0.3983813987526902  0.2964395967717937  0.0830870822216653
  0.2143726375323605  0.8153339521221714  0.3562185766133054
  0.1579705692194629  0.6428126354126553  0.8196834154745934
  0.6349886559207482  0.5157616514875578  0.7620427096666620
  0.7664450147741916  0.2941596764581864  0.1909498433473556
  0.7360944557713378  0.1229339186820459  0.6338694879661088
  0.3398332712118747  0.7017976048930087  0.9532388880294275
  0.2451157433341524  0.2231587403086840  0.9271812883638648
  0.1002627216424837  0.9495307154759057  0.1871994315882761
  0.1789331233047494  0.2911782377143410  0.3031306031679394
  0.3877352209338323  0.1511221640977445  0.4793456586404414
  0.2002437047462633  0.4277223317097599  0.8438963083126458
  0.9648107998871267  0.4048432267303018  0.1260446027161266
  0.1169502163024213  0.5007882997098853  0.2554017392375610
  0.9216182872243547  0.9773251457296094  0.8740905176800682
  0.7268441733556180  0.4166419633431308  0.3863085468554058
  0.9706078004317936  0.1518438978814450  0.1773161072598008
  0.8533011831629562  0.5103999660187332  0.5336639522976400
  0.4889579525928638  0.1739186886843966  0.9171392174854740
  0.4987145854564815  0.9912524882509574  0.6886302059696378
  0.0635621437321187  0.3498222046184740  0.6955064738392047
  0.8955868011525125  0.2796830713770505  0.5497453112397229
  0.6744200999595819  0.2460459724677608  0.8347415906661797
  0.5133289613197397  0.1979494371442796  0.6611747877366512
  0.1642220993835680  0.7312378533931932  0.5594081807918465
  0.6743652203745355  0.0104606176112351  0.8214264480663893
