Sc  F  C 
 1.0000000000000000
    13.1286234000000004    0.0000000000000000    0.0000000000000000
    -6.5643117000000002   11.3697213799999997    0.0000000000000000
     0.0000000000000000    0.0000000000000000   26.8280942399999986
 Sc  F   C  
  32  32  16
Cartesian
 -0.1310722200000000  1.8207541800000000 12.1061840099999998
 -1.7639459099999999  4.6937202100000004 12.1292135200000004
 -3.2018521700000000  7.6462200700000000 12.2444207699999996
 -4.8898852300000000 10.3834728199999997 12.0529760300000000
  3.1796077000000000  1.8542248800000001 11.8963447900000006
  1.6543845900000000  4.6783112899999999 12.1532739099999993
 -0.1734348800000000  7.6059726500000000 12.2488477099999997
 -1.5376335400000001 10.3728962199999994 12.1604280500000002
  6.5674022299999999  1.7978069100000000 12.1390227500000005
  4.9811047999999998  4.6289389999999999 12.1058585399999998
  3.3319457600000000  7.4491039600000004 12.1752813599999996
  1.6425368499999999 10.3990481300000006 12.1292720700000007
  9.7637177000000008  1.8385019700000000 12.1611226899999991
  8.1762225100000006  4.6060829300000004 12.1045097399999992
  6.5371534400000000  7.6570606999999997 12.1986570899999993
  4.9609204599999996 10.5497471899999997 12.0864200700000008
  1.8379560900000000  0.9588821700000000 14.7051276000000009
  0.1250954200000000  3.8744043200000000 14.7476580800000008
 -1.7935797499999999  6.6524590100000003 14.8467409400000001
 -3.2442674000000000  9.5341801900000007 14.6511065699999996
  4.8447130700000001  0.9484537700000000 14.5933210199999994
  3.3193903800000002  3.8053468200000000 14.6755497100000003
  1.7770283499999999  6.5232387699999999 14.6466224000000000
  0.1291969600000000  9.4795389700000001 14.6941757499999994
  8.1075695299999992  0.9397318200000000 14.7049190700000008
  6.5680562900000004  3.7724535499999998 14.7159906500000002
  5.0140472699999998  6.5831087899999998 14.6711424299999997
  3.3014690500000001  9.4790718799999993 14.5982291400000008
 11.4381254899999991  0.8834293700000000 14.7828601200000005
  9.8390499800000004  3.7351161400000001 14.7007741400000000
  8.1759192899999995  6.5883958600000003 14.6688054200000000
  6.5320975800000003  9.5269837600000002 14.6572433199999992
 -0.2991422800000000  1.9543592000000001 15.9531297999999992
 -1.6745861099999999  4.8379708199999998 15.8712877900000002
 -3.3282092400000001  7.5134203299999998 15.7314664799999999
 -4.8252662199999996 10.6104654800000002 15.8087513200000007
  3.5010240600000002  1.9515280399999999 15.8523551200000004
  1.5875664800000000  4.9182259500000001 15.8461628900000004
 -0.0316982000000000  7.5967746299999996 15.8707020399999994
 -1.6245566199999999 10.2907016900000006 15.7530256499999997
  6.6083934900000001  2.0538832299999998 15.8623470900000001
  4.9622133899999996  4.5988404100000002 16.0832803999999996
  3.3050112299999999  7.7377963899999997 15.7462146700000005
  1.7331352499999999 10.5288202599999998 15.9243495900000003
  9.3795624199999992  1.9239256100000000 15.8933805600000007
  7.8491182500000001  4.9511178899999999 15.8744765900000004
  6.5452969100000002  7.5582735699999999 15.8138332599999991
  4.8232269800000003 10.4247038199999995 15.8595817300000004
  1.5568039899999999  0.9982016900000000 11.0890120000000003
 -0.1381095600000000  3.7624108199999999 10.9816110200000008
 -1.7348062099999999  7.0089838200000001 10.9958101599999996
 -3.0589572500000002  9.4553236999999992 11.0068088399999997
  4.9791259400000003  0.8070265900000000 11.0006313599999999
  3.0790119699999998  3.7269778699999998 10.9449474400000000
  1.9287599600000001  6.3623721199999999 10.9475086899999994
  0.1446718300000000  9.6103740799999997 10.9761228600000003
  8.5249450699999993  0.8549918100000000 10.7929148999999995
  6.4418213499999997  3.7784889300000000 10.9773873599999998
  4.8217006199999997  6.6909582900000002 11.0232908900000002
  3.2149909200000000  9.3991644399999998 11.1356624800000006
 11.5489757999999991  0.8914442800000000 10.8139790500000004
  9.7788118799999992  3.9023197600000001 10.9078956999999992
  8.3492832600000000  6.6962546800000000 11.1699025100000000
  6.5296425800000000  9.7550744700000003 11.0172160300000002
  0.0385304200000000  0.0671539200000000 13.4795399299999996
 11.3921452700000003  2.9812310800000001 13.4214252999999992
 -3.2402522100000000  5.7213906300000001 13.4988876799999993
 -4.9431905000000000  8.6105319799999993 13.3205233700000001
  3.3077572800000001  0.0937401700000000 13.3308415799999995
  1.7516428500000001  2.7444788500000001 13.3777773300000007
  0.1237324900000000  5.6829360199999996 13.3124708599999995
 -1.5161492100000000  8.7057708599999994 13.4193671999999999
  6.5019246300000004  0.0931181100000000 13.4499520799999992
  5.0225066299999996  2.8684899599999998 13.2699419200000008
  3.4260635100000001  5.5782682799999996 13.4297621500000002
  1.5941917100000000  8.4254652900000000 13.4776459899999992
  3.2685705999999999 11.3601719200000009 13.3814700200000001
  8.2977803300000001  2.8074988599999999 13.4779870099999997
  6.6054847499999996  5.6459946299999997 13.5151388000000008
  5.0414230499999997  8.6760502699999993 13.3907334000000002
