Sc Cl  C 
 1.0000000000000000
    13.7939866799999997    0.0000000000000000    0.0000000000000000
    -6.8969933399999999   11.9459428800000005    0.0000000000000000
     0.0000000000000000    0.0000000000000000   27.8102210700000008
 Sc  Cl  C  
  32  32  16
Cartesian
 -0.0039255400000000  1.9254334099999999 15.2310435900000005
 -1.6402099500000000  4.9140225199999996 15.1908268999999994
 -3.5198819100000001  7.9992293500000002 15.1389193899999999
 -5.1501315200000004 11.0395621899999998 14.9984301000000002
  3.5230767599999999  1.9734609800000000 15.2155753699999998
  1.6713605800000000  5.0124776300000002 15.1623721600000003
 -0.0660524800000000  7.9970614900000001 15.1140178400000007
 -1.6269091700000000 10.8574431100000002 15.1065924700000007
  6.8683879799999996  1.9647578600000000 15.2743911400000005
  5.0508746300000000  5.1035665500000000 15.1745940400000006
  3.3821733300000001  7.9837622100000001 15.1239991200000006
  1.7722571300000001 10.9846939599999995 15.0399251500000002
 10.2767391400000001  2.0212396300000002 15.1527294500000007
  8.4692854900000007  5.0909162700000001 15.1996596000000004
  6.8786091799999998  7.9639611500000003 15.1899929399999998
  5.0742906799999998 10.8553980299999999 15.0604161899999998
  1.6925340099999999  1.1570930300000000 12.7288431000000006
 -0.0813134800000000  3.9563412400000000 12.7480303399999997
 -1.7279611500000001  6.9668122200000004 12.6089098199999992
 -3.5231447100000000 10.0145408499999995 12.6484866199999999
  5.0430225699999998  0.9926908300000000 12.7612518999999995
  3.3689829900000001  3.9847622800000000 12.7528064400000005
  1.7230406700000001  6.9988912200000000 12.6577746300000005
 -0.0626648000000000  9.9349024400000001 12.5737859899999993
  8.6610889199999992  1.1289975600000000 12.6370244300000003
  6.7980198300000003  3.7641849399999998 12.8084330000000008
  5.3311220099999996  6.9542024900000001 12.5942222499999996
  3.4372035300000001  9.9315213799999995 12.5515244399999997
 11.9976031600000006  1.0667313700000001 12.6723940200000005
 10.3145134800000005  4.0259079900000003 12.7294843100000001
  8.7433163300000007  6.9426197700000003 12.6476933200000001
  6.9393121300000002 10.0811928500000008 12.6302017000000006
 -0.0298497100000000  2.0198105499999999 11.0596174800000000
 -1.6535002100000000  4.8810076799999997 10.8856433199999998
 -3.2507578399999999  8.1495316199999994 11.0401073600000004
 -5.1550112800000001 11.1537042100000008 11.0673675500000002
  3.3068458299999999  1.8555952899999999 11.0394038099999996
  1.8496631500000000  4.9279513399999999 10.9195461399999996
  0.0596852700000000  7.6722100400000004 10.9355235099999994
 -1.7006618400000000 11.0455451700000005 11.0202527200000002
  6.7836762999999998  2.0389317299999998 10.8286919800000003
  5.2492320899999996  4.9970212700000003 11.0257856299999997
  3.6121025200000001  8.0014108700000008 10.9708793100000008
  1.7992409199999999 10.9700164099999995 11.0763470300000009
 10.2680691999999993  2.0253440500000002 10.8861256999999991
  8.6893443799999996  5.1051640699999998 10.9420014900000009
  7.1070747200000000  7.8863450400000001 10.9497981099999997
  5.1266658899999999 11.0036519599999991 10.9781627400000001
  1.8319048300000000  0.9693855000000000 16.8420353200000008
  0.0111099300000000  3.8985560800000001 16.7998974200000006
 -1.6946164800000001  6.9925039099999999 16.8899762500000001
 -3.3297693800000001  9.8987939699999998 16.9015487200000010
  5.1098664400000002  0.8568773400000000 16.9935817500000006
  3.5283152499999999  3.9696966599999999 16.7814707900000002
  1.8396248399999999  6.9545172099999997 16.7183546099999987
  0.3069109700000000  9.9362732600000001 16.6372489500000000
  8.5187378999999996  0.8150180100000000 16.9073504200000002
  6.8830773599999997  4.0840690700000000 16.8572005500000017
  5.0426129399999997  6.9848259400000003 16.8466853500000013
  3.4819766900000002  9.8168500900000009 16.8475794699999994
 11.9763702900000002  1.0303415400000000 16.6667283300000015
 10.1791483800000009  4.0105365500000003 16.7939475499999986
  8.5913893800000007  6.8687976600000002 16.8074308499999994
  6.8170938300000001  9.9362911900000004 16.8100564500000011
  0.0446561100000000  0.0701919200000000 13.9145323699999999
 11.9086867699999992  2.9929183099999999 13.8420967499999996
 -3.4528181099999999  5.9914273600000003 13.8970481400000008
 -5.0895984600000004  8.9319596800000003 13.8831784599999999
 -3.3156104700000002 11.9341165700000005 13.9285101900000008
  1.9069312300000001  2.9004513400000000 14.0071552599999993
  0.0441287000000000  5.8392831599999999 13.9747600700000003
 -1.6784612600000000  8.8273013500000008 13.9227560900000000
 -0.0975241700000000 11.8791893799999997 13.9508088600000004
  5.1165491000000003  2.9389968899999999 13.9657893600000005
  3.5335433100000002  5.9681041500000003 13.8880342500000005
  1.7827996900000000  8.8453372600000009 13.7895913599999993
  3.4228175699999999 11.8953763899999991 13.8537633400000004
  8.4850624099999994  2.8387903500000000 13.9595109900000001
  6.9184997299999997  6.0174672200000003 13.9611066899999994
  5.3428033399999997  9.0631078800000004 13.8412725499999993
