Sc Cl  C 
 1.0000000000000000
    13.7939866799999997    0.0000000000000000    0.0000000000000000
    -6.8969933399999999   11.9459428800000005    0.0000000000000000
     0.0000000000000000    0.0000000000000000   27.8102210700000008
 Sc  Cl  C  
  32  32  16
Cartesian
  0.0054132900000000  2.1110315000000002 15.3090210599999992
 -1.7260742300000000  5.0563455099999999 15.2917724400000008
 -3.5229852400000001  7.8361008300000004 15.2699859000000000
 -5.2095629499999996 10.8839861800000008 15.1341225000000001
  3.5478830399999999  1.9732836899999999 15.1279536500000003
  1.7473249799999999  5.0810634200000004 15.1907393600000002
  0.0337158400000000  7.8951302200000004 15.2549159099999994
 -1.7854304800000000 10.8485961799999995 15.2065835800000002
  7.0024349199999998  1.9995732200000000 15.1087645399999992
  5.2167272799999997  5.1290699799999997 15.1730041100000008
  3.4048337200000001  8.0412330099999991 15.0479907100000005
  1.6680259200000001 10.8112055799999993 15.2371608700000003
 10.4359206899999997  1.9602159299999999 15.0709392700000002
  8.5612479599999993  4.8753109700000001 15.1527642799999995
  6.8465622499999998  7.9204058300000000 15.1744912799999998
  5.1306289400000002 10.9537277799999995 15.1395463199999991
  1.6217523199999999  1.1224785100000001 12.5318797600000007
  0.1906922900000000  3.9507346999999999 12.6385210299999997
 -1.6569256100000000  7.1101210200000002 12.5963661499999997
 -3.5195014300000000  9.9362723400000004 12.8148365599999998
  5.3242514999999999  0.9498220800000000 12.6938412700000001
  3.4866716200000001  3.8196442500000001 12.7428737600000002
  1.7566385499999999  7.0540092999999997 12.6068596300000006
 -0.0512063300000000  9.7836801199999996 12.7154479200000008
  8.6968265000000002  0.8450362000000000 12.6751436300000009
  6.8414196399999998  4.1368995399999999 12.7275210300000001
  5.0124212300000002  7.0026247200000000 12.6300238900000004
  3.5741364700000000 10.0007825100000005 12.5411057100000001
 12.0173211900000005  1.0738881199999999 12.5895759100000006
 10.2842756699999995  3.9644674000000002 12.7746291799999998
  8.5047359799999995  6.8690127399999996 12.5869774999999997
  6.9732466600000000 10.0163477699999994 12.6546636699999997
 -0.2456546600000000  2.0144684200000000 10.8676925999999998
 -1.6953052600000000  4.9148618199999996 11.1335003100000005
 -3.4011756300000000  8.1074477799999993 10.7957433300000005
 -5.3273725000000001 11.1391230100000005 10.9216591699999999
  3.3619918100000001  1.9145505300000001 10.8628541900000002
  1.7099654399999999  4.9312929399999996 11.0489675300000005
 -0.1446749400000000  8.0214384299999999 11.0020133599999994
 -1.8116911200000001 11.1123331299999997 11.0369725899999995
  6.9811116400000000  1.9912455400000000 11.0254903800000008
  5.1005744799999997  4.9044949300000003 10.9825530600000008
  3.4003048599999999  8.0607229700000005 10.7571251100000005
  1.8416284100000000 11.2504307299999997 10.9211380400000007
 10.2457706599999998  2.2042136499999998 11.0852177899999997
  8.5192490599999999  5.0301130100000000 10.9148382399999999
  6.9307013199999998  7.8601691400000000 10.9161042199999994
  5.0054456099999998 10.9155373099999995 10.7618904499999992
  1.7157143399999999  0.8662117800000000 16.8442578800000007
  0.1508071600000000  4.1181343300000002 16.9995347700000003
 -1.9458440100000001  6.8158000000000003 16.8437197400000009
 -3.4105336099999999  9.8511193600000002 16.8106763599999987
  5.2180288499999996  0.9797091900000000 16.8577563300000008
  3.6207924100000000  4.0181179299999998 16.6394944500000008
  1.9304073900000001  7.0054317199999998 16.8629746900000015
 -0.0999156000000000  9.8182582600000003 16.8998746400000002
  8.6879706300000006  0.8930154100000000 16.8997085499999997
  6.9889877100000000  3.8867783400000002 16.7786078799999991
  5.0657961800000004  7.0202393199999999 16.7733654799999989
  3.5220699099999999 10.0548315600000002 16.9192931299999998
 12.2948489500000004  0.7882206800000000 16.8478919800000000
 10.5479126500000007  3.8561943900000002 16.7777695800000011
  8.5222489400000008  6.8189787800000001 16.8857757299999989
  6.9112797900000000  9.8674718400000003 16.7279178699999989
 13.7074379000000004  0.0731554900000000 13.8018417600000003
 -1.6669537299999999  2.9952211800000001 14.0486960399999994
 -3.3977054000000000  6.0250947799999999 13.9433803100000002
 -5.1617624199999996  9.0211405899999999 13.8203729800000001
  3.4373440199999998  0.2080417300000000 13.8356509600000006
  1.8305783700000000  3.1405175100000000 13.9063570700000003
  0.0688095800000000  6.0099176400000003 13.8811286799999998
 -1.7467568499999999  9.0892665899999994 13.9019197299999995
  0.1258719400000000 11.8185702100000007 13.8460500500000006
  5.2635731799999999  2.9517459000000001 14.0274136499999997
  3.4659013100000000  6.1173834600000001 13.8768930699999995
  1.5378809099999999  8.8341037900000003 13.8444430999999994
 10.4598016400000002  0.0613457600000000 13.8779247600000009
  8.4862540600000003  3.1427028600000000 14.0670896200000008
  6.9404062599999996  6.0153768100000002 13.9629592400000000
  5.1715354199999997  8.8856712000000009 13.8247355200000008
