Sc Cl  C 
 1.0000000000000000
    13.7939866799999997    0.0000000000000000    0.0000000000000000
    -6.8969933399999999   11.9459428800000005    0.0000000000000000
     0.0000000000000000    0.0000000000000000   27.8102210700000008
 Sc  Cl  C  
  32  32  16
Cartesian
  0.0108462900000000  2.0310885900000000 15.1946690600000007
 -1.7504514200000001  4.9734907799999997 15.0761882000000007
 -3.4694729999999998  7.9280979299999998 15.2668635500000001
 -5.0615991200000003 10.9401947600000007 15.0608070600000001
  3.5105072300000000  2.0496479600000002 15.2316592100000001
  1.6198987300000001  5.0579699900000001 15.1174854300000003
  0.0804102400000000  7.9469384300000003 15.3051635800000003
 -1.7988624600000001 11.1432679300000004 15.0512815300000007
  6.8322301300000001  2.1347350199999999 15.1457569299999992
  5.1135063599999997  5.0095468099999998 15.2623485999999993
  3.3147412699999999  8.0549480700000000 15.0034040799999993
  1.5875629899999999 10.8961094599999999 15.2073520700000007
 10.2880733899999992  1.8942294600000000 15.1047930499999996
  8.4316144499999996  5.0400567799999996 15.1528668399999997
  6.9333239000000004  7.9733156899999997 15.1513338100000006
  5.2338180799999998 11.0130371900000004 15.0575336100000001
  1.8936478100000000  0.9657974300000000 12.5494252300000007
 -0.0132988700000000  3.9252790800000001 12.6343965399999991
 -1.5377316000000001  7.0403841600000003 12.7193450899999991
 -3.2554672299999998  9.8758125499999991 12.7634696499999993
  5.2294142800000003  1.0945123400000001 12.5465313700000003
  3.4554401800000001  3.8885538300000002 12.6392460399999997
  1.7762143300000000  7.0381221900000002 12.7256882099999995
  0.0161154900000000 10.1023279800000001 12.7558952600000008
  8.5038069800000002  1.1516165199999999 12.5632347600000003
  6.9192747299999997  4.0651910600000001 12.5965439799999999
  5.1482447799999997  7.0866036599999997 12.6063697000000001
  3.4230148499999999 10.0418835099999999 12.5981292000000007
 12.1885288999999997  0.9924400500000000 12.7224045799999992
 10.3421364199999992  4.0125876099999997 12.7123304499999996
  8.8095550300000003  6.9456531000000004 12.7301974999999992
  7.0707184200000004  9.9708034600000008 12.6444153799999999
 -0.0830871900000000  1.9131980500000001 10.9796219599999993
 -1.7649556399999999  4.8541000299999997 11.1032244700000007
 -3.3620369299999999  7.5881198400000001 10.8851006600000009
 -5.1097378600000001 10.8142875800000002 11.1608794299999996
  3.4992593900000002  1.9466641200000001 10.8917372700000001
  2.1390129299999998  5.2116960900000002 10.8482427700000006
 -0.0107845900000000  7.7853141199999998 10.9132974399999991
 -1.4890173799999999 10.8270550500000002 11.0644363200000004
  6.7483188199999997  2.1096211100000000 10.8719768600000002
  5.1748658299999999  4.8096879399999999 11.1775953900000005
  3.3256434100000001  8.0077132500000001 11.0084233499999993
  1.5403134300000001 10.8771357599999998 10.8798258000000008
 10.4300962399999992  1.8254547000000001 10.9319740900000006
  8.4952130799999992  5.1344465300000000 10.8306995399999995
  7.0143551700000000  7.8197459100000000 11.1381212499999993
  5.1756274800000002 11.0113680699999996 10.9807839699999992
  1.6297124199999999  0.7921860800000000 16.9209183799999998
 -0.0943932200000000  3.8698318600000001 16.9440757600000005
 -1.7531170199999999  6.9597483300000000 16.8429131900000009
 -3.4692405100000001  9.8904590999999993 16.8029606800000018
  4.9212359699999997  1.0300519800000001 16.8247029099999992
  3.4182455300000001  3.9757976400000001 16.8900752599999997
  1.6965637499999999  6.9881323799999997 16.8588124099999987
 -0.1797931500000000 10.0497272100000004 16.7933922200000012
  8.7490707200000006  1.1262668800000000 16.8456016499999990
  6.9339818600000003  3.8654918500000002 16.8565642900000014
  5.1015866699999997  7.0324425399999999 16.8793211099999994
  3.2380825000000000  9.9360685899999996 16.8811373399999987
 12.0064725899999996  0.8587165100000000 16.7505506699999991
 10.3527302700000003  3.8495675700000000 16.5569244399999995
  8.4308075000000002  6.8330623499999996 16.9465390499999984
  6.8964976699999996  9.8759884499999995 16.7343886300000015
  6.9381191299999996 11.7966066200000004 13.9085828700000000
 -1.6398301600000000  3.0801768300000001 13.8334428099999993
 -3.3256296299999999  5.8044740600000004 13.8771522300000001
 -5.0170278100000001  8.8860787999999999 13.8958304100000003
  3.3912729499999998  0.0290043600000000 13.9921719200000005
  1.6081494599999999  2.9520710900000000 13.9510402599999992
  0.1527588200000000  6.0204267800000002 14.0607256899999999
 -1.6807110800000000  8.9054523499999991 13.9135674999999992
  6.8632704300000000  0.2531055600000000 13.8151660900000000
  5.2123041600000004  3.1880642099999998 13.9018552199999998
  3.3824246699999998  5.9034654299999998 14.0246510499999992
  1.6705726100000000  9.1297984700000008 13.9790090300000003
 10.3841912199999999  0.1370965400000000 13.8743050199999995
  8.6227414499999995  3.0843134999999999 13.8243577299999991
  6.8711149499999999  6.1238010400000000 13.9264186100000007
  5.2113940999999997  8.9434432400000006 13.8597226800000008
