Sc Cl  C 
 1.0000000000000000
    13.7939866799999997    0.0000000000000000    0.0000000000000000
    -6.8969933399999999   11.9459428800000005    0.0000000000000000
     0.0000000000000000    0.0000000000000000   27.8102210700000008
 Sc  Cl  C  
  32  32  16
Cartesian
 -0.1535456100000000  2.0064478100000001 15.0773410999999999
 -1.8379644600000000  5.1286307000000004 15.1229659900000009
 -3.4376745299999998  8.0285649299999999 15.1027861399999992
 -5.2355493099999997 10.9810298500000005 15.0849718700000004
  3.5450565100000002  2.1127999499999999 15.1246560799999994
  1.5292501800000000  4.9753220400000000 15.1469818699999994
  0.0358289800000000  7.9443102699999999 15.0805170799999999
 -1.5979949800000000 11.0488513000000008 15.1318893200000009
  7.0277668599999998  1.9833941100000001 15.1332217399999998
  5.1739261799999996  4.9422746499999999 15.2313681200000008
  3.3974853800000000  7.9006079600000003 15.1537921999999998
  1.7328233099999999 10.7232798599999999 15.1852833599999997
 10.3248073500000004  1.9850391900000000 15.2451403100000000
  8.5683363200000002  4.9442841099999999 15.2604848000000004
  6.9315588400000001  7.9259187500000001 15.1140685799999996
  5.1488599400000004 10.9898760800000002 15.1056531199999995
  1.8152940000000000  1.0808750300000001 12.6322102199999993
 -0.0807810900000000  3.8346842300000001 12.6676584600000002
 -1.7828400799999999  6.9998515499999998 12.6643242199999992
 -3.4663155099999998 10.0367657200000000 12.6251327000000000
  5.1588211700000004  1.0070648300000000 12.6105616600000001
  3.4413005100000000  4.1457158900000000 12.7241530600000008
  1.8336833699999999  6.9552455899999996 12.7092290899999991
 -0.0139855000000000  9.9160552899999992 12.6473180599999999
  8.7428445700000008  0.7822739900000000 12.6301062500000008
  6.9855773000000001  3.9856865199999998 12.7184590199999992
  5.2777878700000000  6.9635665700000002 12.7201118100000006
  3.5087278099999999  9.8582904399999993 12.6634402999999995
 12.0239760600000007  0.9259129600000000 12.6206750999999997
 10.2932487699999999  3.8359454600000000 12.6232153599999997
  8.6963236899999998  6.9699882200000003 12.7434457000000005
  6.9531882600000001  9.9756822700000001 12.6686345199999995
  0.1123715100000000  1.9507952000000000 10.9700039300000007
 -1.7601524700000000  4.8737104599999999 10.9938813700000004
 -3.4061904400000000  8.0878703699999992 10.9749917200000002
 -4.9593787100000002 10.9166152600000004 10.9686779899999998
  3.6403100600000000  2.1423414599999999 11.0289091700000004
  1.5371982700000000  5.0983441799999998 11.0325462600000002
 -0.1162611100000000  7.9147724899999998 11.1698060899999998
 -1.6304626099999999 10.9245461099999996 10.9714741799999995
  7.0472755700000000  1.9492640299999999 11.0180739499999998
  5.0909921200000001  5.0014036300000004 10.9761900600000004
  3.6319391699999999  7.8725000500000002 10.9915665300000001
  1.7558910700000001 10.8631124000000003 10.8607977200000008
 10.4320480900000003  1.9967025300000001 11.0258135199999998
  8.5708511900000008  5.0803498500000002 10.9568600699999994
  6.9189895899999998  7.8905197100000004 11.0051688399999996
  5.2868409200000004 10.9178200299999997 10.9529841700000006
  1.5284513799999999  0.9756648400000000 16.7102394499999996
 -0.2414959200000000  3.9654173199999998 16.7569985099999990
 -1.7315668000000000  7.2066807199999996 16.7283665600000013
 -3.5693552199999998  9.9536864400000002 16.7982798299999985
  5.3489480800000004  0.9807295200000000 16.7316017600000002
  3.3495686800000000  4.1153803000000000 16.7749534000000011
  1.7512734000000001  7.1091954700000004 16.8037627399999998
  0.0329994000000000  9.9871918599999994 16.7654552400000014
  8.5447767799999994  0.9309716500000000 16.8195112599999987
  6.8611914599999997  3.8166017499999998 16.9501221700000002
  5.0822140800000000  6.8077420399999999 16.8650644999999990
  3.3803787299999999  9.9497604099999997 16.7961571200000002
 11.9349290499999992  0.9978555400000000 16.9953437100000002
 10.2988192200000004  4.0560323000000000 16.8899180599999994
  8.5769899600000006  7.0745852999999999 16.7928174800000001
  6.7976064500000000 10.0678013400000008 16.8181614199999991
  6.8444493900000003 11.8718443499999999 13.8193129599999995
 12.0653537600000007  2.9840579599999999 13.9583242399999996
 10.3089117500000000  6.0135731899999998 13.9117271900000006
  8.5858160500000000  8.9015767500000003 13.9450507100000003
  3.3785481900000001  0.0507611100000000 13.9328976699999991
  1.7099816100000000  3.1197633100000002 13.8109496299999996
 -0.0234442100000000  5.9738771399999999 13.9321655900000003
 -1.7053598599999999  8.9957800999999993 13.9071391099999992
  0.0660830700000000 11.8285848900000001 13.9857006399999992
  5.1602480899999996  3.0007323900000000 13.9902546099999991
  3.4847972299999999  5.9942162699999999 13.9287757400000007
  1.7438193399999999  8.8560651299999993 13.8337976099999995
  3.3920473200000001 11.9398036800000007 13.8814627999999995
  8.7550763499999995  2.9910053099999998 14.0169709800000000
  6.9208800899999998  5.8956882000000004 13.9436715099999997
  5.2256935100000002  8.9915428100000003 13.8639006100000000
