Sc  F  C 
 1.0000000000000000
    13.1286234000000004    0.0000000000000000    0.0000000000000000
    -6.5643117000000002   11.3697213799999997    0.0000000000000000
     0.0000000000000000    0.0000000000000000   26.8280942399999986
 Sc  F   C  
  32  32  16
Cartesian
 -0.0351637600000000  1.9377564700000001 12.1364895700000002
 -1.6281575200000000  4.7689314100000004 12.1534293000000009
 -3.3824432199999999  7.6103769899999998 12.1807785699999993
 -4.9452838699999999 10.3978167500000005 12.1267174000000004
  3.2897467699999998  1.8403364799999999 12.0214574699999996
  1.6949050600000000  4.8373789599999997 12.1419369400000008
  0.0577521600000000  7.6320064800000003 12.1681469300000007
 -1.5809892100000000 10.3934027699999998 12.0812129499999994
  6.6077693699999998  1.8889862900000001 12.1994076000000007
  4.9111286400000003  4.7062059400000003 12.1558294700000005
  3.3166489200000000  7.5932398900000004 12.1626546100000006
  1.7206091500000000 10.3930660199999991 12.2330842299999993
  9.8125254999999996  1.9610591900000001 12.2280610799999998
  8.1097020700000009  4.7128294000000004 12.2369476400000003
  6.5466761900000003  7.5240846599999998 12.2363871000000000
  4.9470154199999996 10.3634375999999993 12.0095211400000004
  1.6563129900000000  0.9579006799999999 14.6221346800000003
  0.0220731300000000  3.7754173700000000 14.6992370099999992
 -1.5929939700000000  6.6076778400000000 14.5769297699999996
 -3.2862515000000001  9.4564751999999999 14.6780922599999997
  4.8389326099999996  0.8889145800000000 14.6048985200000008
  3.3764629500000001  3.7734879700000001 14.6428454800000001
  1.6348022600000001  6.5971049900000001 14.7071078100000001
 -0.0182045900000000  9.4873435599999993 14.6859131499999993
  8.1726073400000008  0.9951948800000000 14.6732565600000004
  6.5606502100000004  3.7535950300000001 14.7108699000000005
  4.9949196100000002  6.6390893000000002 14.7520948000000001
  3.2893086700000000  9.4821659000000000 14.7364150400000007
 11.4988380600000006  0.9561876400000000 14.6651979200000007
  9.7982730100000008  3.8480218200000000 14.6677947000000000
  8.2688830800000002  6.7195982499999998 14.6945680999999997
  6.5684617899999997  9.5410735800000008 14.6432388099999997
 -0.0445800100000000  1.9495553100000000 15.7589354299999993
 -1.6319258100000000  4.7974809699999996 15.8782912300000003
 -3.1835104300000001  7.6270563200000003 15.8115872999999993
 -4.9619962900000001 10.3440630599999999 15.8277070299999991
  3.3986372600000001  1.8267052900000000 15.8560807500000003
  1.7632076400000001  4.6246428399999999 15.8516690199999992
 -0.0146178800000000  7.4111495600000001 15.7266235900000009
 -1.6683420099999999 10.4103250900000006 15.7488401699999994
  6.5650287599999997  1.8772011000000000 15.8306805500000003
  4.9016305999999998  4.5476596400000000 15.8342684200000008
  3.3039845300000001  7.6112442800000002 15.7472248700000002
  1.6024375200000001 10.5033259999999995 15.8831544699999991
  9.7925326199999994  1.9803446499999999 15.7762409300000002
  8.0829747500000000  4.7494874999999999 15.9319169699999996
  6.3804962600000001  7.6959398200000004 15.8109574599999991
  4.9137750400000000 10.5260064599999996 15.8258692399999994
  1.5656742699999999  0.9112500300000000 11.0791965000000001
 -0.0646226200000000  3.6924081599999998 11.0376532699999998
 -1.7519257800000001  6.5507029000000001 11.0009450300000005
 -3.2807635300000002  9.4245289299999992 10.9480683699999997
  4.9653805599999998  1.0106230599999999 10.8749657800000001
  3.1666056400000002  3.8136592899999999 10.9416500499999998
  1.6850914200000000  6.7089347999999998 11.0004604100000005
  0.0914583900000000  9.3793581100000001 11.0156578199999995
  8.2463397599999997  0.9636490400000000 11.0954133200000005
  6.5408745100000001  3.9229096499999998 11.0294485600000005
  5.0121573799999997  6.5535741200000004 11.0729224899999998
  3.1990608300000001  9.3923588799999997 11.0308606499999993
 11.4527439799999993  0.9285990300000000 11.0337082300000002
  9.8533162900000004  3.8865173799999999 11.0186989000000004
  8.0873295499999998  6.5866074499999998 11.0867247700000000
  6.5961122500000000  9.4738376300000002 10.9060755700000005
  0.0391981900000000  0.0114223800000000 13.3444706899999996
 11.4126993799999994  2.9013706600000000 13.4271637699999999
  9.8177578200000006  5.7268667500000001 13.4464913199999998
 -4.9116384599999998  8.5237597500000000 13.4204373300000004
 -3.2240729799999999 11.3384350800000000 13.3512232599999994
  1.6673989600000001  2.9238326600000000 13.3540152800000005
  0.0303064800000000  5.6625370300000002 13.4562154700000001
 -1.5985719100000000  8.5240375499999992 13.3640223700000007
 -0.0211021100000000 11.3668743400000007 13.3635043099999997
  4.8471477399999996  2.7891714900000002 13.3651204999999997
  3.2882411899999999  5.6453131100000000 13.4406299100000002
  1.5809401300000001  8.4673440800000002 13.4858985100000002
  3.2978280099999999 11.3183165199999998 13.4080257799999991
  8.2214156700000007  2.8858814900000000 13.4144573499999993
  6.5762751100000001  5.6591159199999996 13.5156627399999998
  4.9253577799999997  8.4866368399999992 13.4940792300000005
