Sc Cl  C 
 1.0000000000000000
    13.7939866799999997    0.0000000000000000    0.0000000000000000
    -6.8969933399999999   11.9459428800000005    0.0000000000000000
     0.0000000000000000    0.0000000000000000   27.8102210700000008
 Sc  Cl  C  
  32  32  16
Cartesian
 -0.0617632100000000  2.0298856399999998 15.1973625299999995
 -1.7875413600000001  4.9242362999999996 15.1348618899999998
 -3.4651103299999999  8.0793522000000006 15.1283258299999996
 -5.0474336900000001 11.1382895699999995 15.2129213799999992
  3.5141934799999999  1.9040335300000000 15.2291236899999998
  1.8165511999999999  4.8727930500000003 15.1497425000000003
  0.0185714500000000  7.8657616900000003 15.2282457800000000
 -1.6122980400000000 11.0101392400000009 15.1306539000000004
  6.8828630999999998  1.9527971799999999 15.0432354600000000
  5.1791769199999997  4.9693332200000002 15.1696946500000003
  3.4603315399999999  7.8912681999999998 15.0339387900000006
  1.5939386700000000 10.9289574199999997 15.1161314999999998
 10.3969040499999998  2.0831352700000001 15.1798995199999993
  8.7175181700000000  5.1376258300000002 15.0346430899999994
  6.9026243799999998  8.0479720199999996 15.2456096599999995
  5.0580194299999999 10.9366122400000005 15.2747526100000002
  1.6740246900000000  0.9604362000000000 12.6797340900000002
 -0.1472454900000000  3.9423650299999999 12.7939649299999996
 -1.8125559200000001  6.9550894899999998 12.7357025000000004
 -3.4569467500000002 10.0096965200000003 12.7000179200000005
  5.3131609700000002  0.9849822400000000 12.6009103299999996
  3.4741405500000000  3.7698043900000000 12.5165428900000002
  1.5934192599999999  6.8539691500000002 12.6204645200000005
  0.0771220500000000  9.8642011600000004 12.6446056700000007
  8.7331714100000006  0.8796544700000000 12.6225663600000004
  6.8632264400000000  4.0829154900000004 12.5588865900000002
  5.2295926799999997  6.9759131099999996 12.6352418499999999
  3.4050092500000000  9.9313303099999999 12.6546023699999992
 11.9999072899999994  1.0103897200000000 12.8111387899999993
 10.3908000499999993  3.9448774200000001 12.4812267600000002
  8.6604808099999993  7.0771086900000002 12.4784918800000000
  6.8439043399999999 10.1573024499999995 12.7441897300000004
 -0.0795933400000000  2.0141948500000000 10.8488029800000003
 -1.7426341999999999  5.1609023100000000 10.9826264899999995
 -3.4536524399999999  7.9067632400000001 10.9663854000000001
 -5.0924898499999998 11.0885668600000002 10.9960234400000001
  3.4396935300000000  1.7404928700000000 10.8172370000000004
  1.7671431099999999  5.0275949700000000 11.0258350499999995
  0.1009511100000000  8.0052179700000003 11.0429830100000004
 -1.6603430900000000 10.9720216199999996 10.8830001400000000
  6.7955728500000001  1.8793537800000000 10.8001397899999994
  4.9303862299999999  4.8633903500000004 10.9415049000000000
  3.4857123900000002  7.9473852400000000 11.1732547300000000
  1.6665973300000001 10.7945942899999991 10.9435384399999993
 10.4595750499999998  1.9704223400000000 10.9050305900000009
  8.5028802500000005  4.7757728999999998 10.8038073000000008
  6.8642496299999998  7.9885617699999996 11.1027542799999992
  5.2952805600000001 11.0887006699999997 10.9516951200000001
  1.6217677300000000  1.1098019500000000 16.9148673500000015
  0.0746797500000000  3.9876363200000000 16.8561859799999993
 -1.6930010000000000  6.9926893999999997 16.8644940400000003
 -3.3352990199999999 10.0523675499999996 16.8380256300000006
  5.3322089899999998  1.0462583000000001 16.9645038499999998
  3.5475623700000001  3.9633757400000000 16.9080249800000004
  1.7985702800000001  7.0658263100000003 16.7276626700000008
  0.0410374200000000  9.9005215199999999 16.9965757900000014
  8.5299429799999995  1.0429672200000000 16.8440886300000017
  6.9622899000000000  3.7686866800000001 16.6535404199999988
  4.9070991800000003  7.1495862900000002 16.7030895400000006
  3.4382741399999999  9.9435146999999997 16.9127965099999997
 11.8771664599999998  1.0700636900000000 16.7936451700000013
 10.2661099100000008  3.9576044200000000 17.1451359500000002
  8.7404783500000001  7.0249489900000004 16.9513171800000002
  6.8326686499999996 10.0358806299999994 16.8969072300000001
  6.8829433299999998 11.9450528800000004 14.0311950799999998
 -1.6920963600000001  2.9578310100000000 13.9320465999999996
 -3.2635515300000000  5.8532596200000002 13.8818867099999999
  8.7098026799999992  8.7992201699999999 13.9296287700000008
 -3.4299728799999998 11.7419745399999993 13.8780764699999999
  1.7882086100000001  2.9644300100000001 14.0240778699999993
  0.0459003000000000  5.9499030199999998 14.0525873200000007
 -1.6442955699999999  8.9102852000000006 13.8889967300000006
 -0.0131423900000000 11.8842972499999995 13.8139233699999995
  5.2058155299999997  2.8879671199999999 13.7831159900000007
  3.4289400300000001  6.0268008399999999 13.9048440600000003
  1.7125914099999999  9.0163721599999995 13.9683913600000000
  3.2984480000000000 11.7694569100000006 13.8506823299999997
  8.6251396699999994  2.9137105600000002 13.7734084100000000
  6.8166174100000001  6.1129450399999996 13.7920452099999995
  5.0881734300000003  8.9948997899999998 14.0695023399999997
