Sc Cl  C 
 1.0000000000000000
    13.7939866799999997    0.0000000000000000    0.0000000000000000
    -6.8969933399999999   11.9459428800000005    0.0000000000000000
     0.0000000000000000    0.0000000000000000   27.8102210700000008
 Sc  Cl  C  
  32  32  16
Cartesian
  0.0080707500000000  1.9514051200000000 15.0122951899999997
 -1.6525157500000001  4.8488740100000003 15.1534140500000003
 -3.2396859299999998  7.7622569199999996 15.2431496899999992
 -5.3015803400000001 11.0710850099999991 15.2246287999999996
  3.5119681400000000  2.0121036499999998 15.0650323900000007
  1.8331235100000001  4.8863180899999996 15.3136217000000006
 -0.0224918400000000  7.8866178500000004 15.0201198599999994
 -1.7523943700000000 10.9797415399999991 15.1158425199999993
  6.8969750599999999  1.8124497399999999 15.1772714600000000
  5.3448308899999999  4.8684824500000001 15.2458353199999994
  3.3529682500000000  7.9075290000000003 15.2752133000000008
  1.7550252500000001 10.8759539200000006 15.1757890300000007
 10.2263482999999997  1.8011845399999999 15.0400995099999992
  8.7691378300000000  5.0021984899999996 15.1094120299999997
  6.7230606899999996  8.0859238799999993 15.3262621600000006
  5.1003525300000003 11.1258292399999998 15.0472304599999998
  1.7556237900000000  0.9937205600000000 12.6820412200000003
 -0.0088552000000000  3.9997688700000000 12.6077271500000005
 -1.7238697900000000  7.0464431400000000 12.5444752000000008
 -3.3979612900000000  9.8204243200000008 12.6985943399999996
  5.2133574100000004  1.1047141500000000 12.5517704200000004
  3.4834926400000001  4.0067244999999998 12.8533840700000006
  1.6917712400000000  6.9113475900000001 12.6680505100000005
  0.1015691200000000  9.9275705500000004 12.6429898999999999
  8.5702180000000006  1.0528901900000001 12.5842211899999992
  6.8838751399999998  4.1028564699999999 12.6514693699999992
  5.3231717200000004  7.1004954700000003 12.6663380399999994
  3.4792599300000000  9.9374704800000000 12.7020936399999993
 12.1717569700000006  0.9525409000000000 12.5625750800000002
 10.3080854500000001  3.9970472699999999 12.6491441499999997
  8.6437781400000002  7.1238077700000000 12.8154201600000004
  6.9703518999999998  9.9916571300000001 12.6748491600000008
  0.0839056800000000  1.8011077300000000 10.8239397000000004
 -1.5842495999999999  4.9832803099999996 10.7538695299999993
 -3.4362238800000000  7.9646512500000002 10.9250002300000002
 -5.2128235099999998 11.0041812100000005 10.9921756899999998
  3.4198207699999998  2.0458121000000000 10.9228386900000007
  1.7707699900000000  5.0787769799999998 10.9993382000000004
 -0.0103801600000000  8.0920736099999999 10.9346894300000006
 -1.6530498700000000 10.9760391199999994 11.0981201100000000
  6.8776948100000004  2.0206728599999999 10.7468040299999998
  5.0740812300000000  5.0340804199999996 10.9581154900000008
  3.3880736499999999  8.0320540299999994 11.1795764200000001
  1.5335051900000001 10.9703617399999995 10.9194139200000002
 10.3309278399999993  1.8355809700000001 11.0440685199999997
  8.5732696500000003  4.9833343200000000 11.0614963999999993
  6.8705483899999997  8.2142722300000006 11.0404957300000000
  5.2018243899999996 10.9892578699999994 10.9382207999999999
  1.6424644799999999  0.9229931200000000 17.0442030200000012
 -0.2145729500000000  4.0227468300000000 16.9296859899999994
 -1.6410594700000001  6.9242887000000000 16.7646811000000007
 -3.4586634900000002  9.9530325699999995 16.7602362800000009
  5.0646558199999996  0.6892247700000000 16.8951769200000008
  3.4629738600000000  4.1122794599999999 17.0312992899999998
  1.4939150600000000  6.9827338100000000 16.8362623400000011
  0.0526614900000000  9.9195227999999993 16.9013087599999992
  8.5996049600000006  0.9432330600000000 16.8119739700000004
  6.7437726700000002  3.8444752000000002 16.8986554200000008
  5.1809340400000004  7.0184619799999997 16.8186773500000015
  3.4141484499999999 10.1804109500000006 16.8169077599999994
 12.0899883700000004  1.1641058300000000 16.5647184699999990
 10.3740733800000005  3.8631493500000000 16.8014773899999987
  8.5722949600000007  6.8262431799999996 16.7523885800000016
  6.7938627399999998 10.0467749600000005 16.7934134600000000
 -0.0019398400000000  0.0680075200000000 13.8999375599999997
 -1.6228348699999999  2.9532588999999998 13.7826015999999996
 10.3348453899999999  5.9870529499999998 13.7991460499999992
  8.6778273899999991  8.8107599600000004 13.9880080800000002
  3.3149688300000002  0.1043813300000000 13.9888461000000000
  1.8429184800000000  2.9481850900000000 13.9557078899999993
  0.0089717800000000  5.9394979499999998 13.8156680699999992
 -1.6523420099999999  8.8872635800000008 13.9007221600000008
  7.0078313400000001  0.0008214800000000 13.8725826399999992
  5.1971784200000002  2.9902165100000002 13.8897295199999995
  3.4102631600000000  5.8899720400000000 14.1514365299999998
  1.6506393800000001  8.9938553700000003 14.0260528799999999
 10.3757915999999994  0.0370516900000000 13.7787425799999994
  8.5895330300000001  2.9457087899999999 13.8719362099999994
  6.9360851600000002  5.9890168299999997 13.9253929999999997
  5.2171252199999998  8.9353542600000004 13.9261474199999995
