Sc Cl  C 
 1.0000000000000000
    13.7939866799999997    0.0000000000000000    0.0000000000000000
    -6.8969933399999999   11.9459428800000005    0.0000000000000000
     0.0000000000000000    0.0000000000000000   27.8102210700000008
 Sc  Cl  C  
  32  32  16
Cartesian
 -0.0430676200000000  1.9240799300000000 15.2022348399999991
 -1.7202546700000001  5.0151493900000004 15.0493055699999996
 -3.4069990600000000  7.8306918100000003 15.1775293500000004
 -5.1867329800000004 10.9154473099999993 15.2189976199999997
  3.4238883200000001  1.8715614199999999 15.1002596699999998
  1.7103180000000000  4.9902845999999998 15.1946341300000007
 -0.1258608700000000  8.0177626499999999 15.2121175500000003
 -1.7197606700000001 10.8729429399999997 15.1301865200000005
  6.8994510399999998  2.0076960399999999 15.1613486799999997
  5.0898213700000001  5.0472340500000001 15.0855028000000004
  3.4284994599999998  7.7829389999999998 15.0775736200000008
  1.7723908500000001 11.1397200499999993 15.1750511600000006
 10.3398298999999998  2.0532580100000000 15.1946473599999994
  8.6390855299999991  5.0715487599999998 15.2421070800000003
  6.9203838900000001  7.9492292999999998 15.1142860500000005
  5.2053490099999999 11.0342066299999999 15.0973030999999995
  1.7079218500000000  0.9261804900000000 12.5970523300000004
  0.0912067100000000  4.0725309500000000 12.7651418299999992
 -1.7386502300000000  6.9983801500000000 12.4971777700000004
 -3.4803599900000002 10.0068559900000000 12.6953679499999996
  5.1691517899999999  0.8991188900000000 12.6263785500000001
  3.5062430600000001  4.0035696099999996 12.6250758300000001
  1.7857753100000000  7.0002582999999996 12.6725641000000007
  0.0829686600000000  9.8961973299999997 12.7291365499999998
  8.5784847099999997  1.0254544999999999 12.6442049500000007
  6.8794711599999996  3.8970767799999999 12.6477293000000000
  5.2463449899999999  7.0645007499999997 12.6507059000000002
  3.5244670000000000 10.0047461099999992 12.6011515799999998
 12.0532156799999992  1.0701621100000001 12.5933580700000007
 10.2845231600000009  3.9828279499999999 12.6643624799999994
  8.6202173099999992  6.8441176099999996 12.7288435900000003
  7.0604336700000001  9.9805074600000001 12.7277383299999993
 -0.0270510900000000  2.0335772500000000 10.9665478499999995
 -1.8027676500000001  5.0269006899999997 11.0696238499999993
 -3.5129185100000000  7.9907328599999996 11.0526335600000003
 -5.1740558900000000 11.0036974399999998 11.0125432799999992
  3.5068599900000001  1.9958957900000001 11.0328429700000008
  1.6010694800000000  5.0395286199999996 11.0061195099999996
  0.0431356700000000  7.9281305299999998 10.8943712000000001
 -1.8530751599999999 10.7574386099999995 11.1452548199999999
  6.8695120999999997  1.9489520400000000 10.9676169100000003
  5.1643084899999998  5.1052439600000001 10.8539957800000000
  3.4449772599999999  8.0015748799999997 10.9852586300000006
  1.7167494000000001 10.9267246199999999 10.9681891000000000
 10.4611453000000001  1.9047031600000000 10.8922889299999994
  8.6988145200000009  5.0879604799999996 10.8965775300000001
  6.9586723099999999  7.8813060400000001 11.0326893500000001
  5.1670344100000003 11.0356077199999998 10.9043671100000008
  1.7980185300000000  0.9707800400000000 16.9993942599999990
  0.0670321100000000  3.7778541699999999 16.7830149300000002
 -1.8724791800000000  6.8244783800000004 16.8226451300000015
 -3.3579336899999999  9.9370320200000002 16.7208631799999985
  5.1093521199999996  0.9275771600000000 16.6674420000000012
  3.4387521900000002  4.0269959000000002 16.6844800400000004
  1.7181328600000001  7.1113931900000003 16.8017315200000006
  0.1214642000000000  9.9279234100000000 16.8771171500000001
  8.3780617799999995  0.9781768800000000 16.8583822800000007
  6.7607530300000001  3.9931471200000002 16.8848602600000000
  5.1535996600000002  7.0746452700000004 16.7397001799999998
  3.5337826300000001  9.9791944499999996 16.7933677299999999
 12.0771287399999991  0.8671024000000001 17.0386378000000001
 10.1929595000000006  3.9614654699999998 16.8479232900000007
  8.6974470799999999  6.9888402899999997 16.9423786800000009
  6.9133232400000004  9.9870833200000000 16.9140110300000011
 13.7645458699999992  0.0188512700000000 13.9014793000000001
 12.0383372000000008  3.0029227800000000 14.0014184600000000
 10.2898474800000006  5.8867871999999997 13.9080711000000008
 -5.2338128599999996  9.1632654999999996 14.0425855399999993
 -3.4633880399999999 11.9013240899999992 13.9705149199999994
  1.7723017299999999  3.0304430500000001 13.7802698600000006
 -0.0287689300000000  6.0131812299999998 13.9789343400000003
 -1.7369391999999999  8.8807487599999995 13.9283409900000006
  0.0439525700000000 11.9111040100000007 13.8006125300000004
  5.1266266900000002  3.0008885699999999 13.8416898600000007
  3.4445107899999998  5.9026866199999999 13.9281642899999998
  1.7811346900000000  8.8242185699999993 13.8778640400000004
 10.4495188900000002  0.1857709600000000 13.8146295000000006
  8.5722268800000005  2.9570745700000001 13.8853476699999998
  7.0287886100000003  6.0917840999999999 13.9129723300000006
  5.2635867400000000  8.9614005399999996 13.8746839200000007
