Sc  F  C 
 1.0000000000000000
    13.1286234000000004    0.0000000000000000    0.0000000000000000
    -6.5643117000000002   11.3697213799999997    0.0000000000000000
     0.0000000000000000    0.0000000000000000   26.8280942399999986
 Sc  F   C  
  32  32  16
Cartesian
  0.0716544600000000  1.8440971100000001 12.2325146000000000
 -1.6242661100000000  4.7218447599999998 12.0226817799999992
 -3.2645039900000001  7.6615297000000000 12.0585400699999994
 -4.9647354500000000 10.2855646200000006 12.1413040599999995
  3.2957738100000000  1.8743622099999999 12.1656193899999998
  1.5568491000000000  4.8794860800000004 12.1654056900000000
 -0.0226069700000000  7.6053860799999997 12.2011367600000007
 -1.5411346100000001 10.4526716999999998 12.2840250100000006
  6.5961934600000003  1.9698962099999999 12.1257028699999996
  4.8415644000000002  4.8445458700000001 12.1375092000000002
  3.1653909200000001  7.7135253199999996 12.4042763800000007
  1.6483511300000000 10.3796478800000003 12.0947638699999995
  9.7459223399999999  1.8612015700000000 11.9528951600000006
  8.1608503799999994  4.7296614600000000 12.2002811199999996
  6.3835560100000004  7.5201474399999997 12.0741691299999996
  4.9645408800000004 10.4182734099999994 12.0323018000000008
  1.6931080199999999  0.9305464900000000 14.7657269299999996
  0.0148540400000000  3.7802223100000001 14.5759872599999998
 -1.5385648500000000  6.4983409800000000 14.6883545800000004
 -3.2838240000000001  9.4475069999999999 14.5742629499999996
  4.9786306600000003  0.9665557100000000 14.6989080100000002
  3.1984650999999999  3.8842937100000001 14.7926163099999997
  1.6969341300000000  6.7764673899999996 14.7707024400000009
 -0.0657486300000000  9.4196631899999996 14.7937573300000000
  8.2020861499999995  0.9781832000000000 14.5224913400000002
  6.6254239899999998  3.6628196499999999 14.6699638100000005
  4.9568885099999997  6.6353516099999998 14.7365221999999996
  3.3121285000000000  9.5821520299999996 14.7934670599999993
 11.4669403100000000  1.0824046199999999 14.5709637099999991
  9.8796671299999996  3.7822985299999998 14.8248395100000003
  8.2276599099999999  6.6993889299999996 14.5376087700000003
  6.4823399600000000  9.4761860000000002 14.6908259399999999
  0.0305660800000000  1.7565338600000000 15.8236126499999994
 -1.4826569999999999  4.7635526500000003 15.7816825299999994
 -3.4164794299999999  7.5796507499999999 15.8244733199999992
 -5.0044469700000001 10.2461682500000002 15.7533289300000003
  3.2332955200000000  2.0504887300000001 15.9219107399999995
  1.5204272999999999  4.7585377199999996 15.9121326399999994
 -0.0566661100000000  7.4698557100000000 16.0354138400000004
 -1.8479656400000000 10.4880701300000005 15.7924953800000001
  6.7864864799999998  1.7550917600000000 15.8074316899999996
  4.8799396100000001  4.6372590000000002 15.8154772300000008
  3.3221173500000001  7.2953624100000001 15.9573329400000006
  1.5872928399999999 10.3411171199999998 15.7056430299999992
  9.7634592399999995  1.8961256399999999 15.7596046600000008
  8.3358386200000005  4.8131450300000003 15.9002094399999994
  6.8707438900000000  7.4690599300000002 15.8527381900000002
  4.7923679500000000 10.3707206799999998 15.9751292199999995
  1.6195470900000000  1.0098347400000001 10.8246075000000008
  0.0403229600000000  4.0306070399999996 10.9527499099999996
 -1.5913285399999999  6.6737695199999996 10.9868715600000009
 -3.1937539899999998  9.3630100600000006 10.9297387100000005
  4.9850268199999999  0.9416966100000000 11.0141268700000001
  3.6213176599999999  3.6776841400000002 10.9483738699999993
  1.7514983600000000  6.6574263699999996 11.1247761500000006
  0.1210676400000000  9.5765489200000005 10.9113419100000009
  8.1698760000000004  0.9931327400000000 10.9223814699999995
  6.4932968999999998  3.7355747099999999 10.8596827299999994
  4.7780629599999997  6.7553851199999997 11.0094711699999994
  3.2662542999999999  9.3780312200000004 11.0379298699999993
 11.6085041100000002  0.9390382500000000 10.9943757099999999
  9.9493927699999993  3.8066410500000001 11.0154722899999999
  8.0055659400000003  6.6756234799999996 11.0245585699999999
  6.5161181600000004  9.2279252199999995 10.8885969500000002
  6.4623150499999999 11.2337915400000004 13.5666086600000000
 -1.5712428400000000  2.9680799400000000 13.3607983200000007
 -3.2422245900000002  5.6649038500000000 13.3064081499999993
  8.1904702799999995  8.5325199800000000 13.2831415100000001
 -3.2909970199999998 11.3119450799999992 13.3328126900000008
  1.6208706799999999  2.8147893800000001 13.5880198100000005
 -0.0563766700000000  5.7551640900000001 13.4406019000000008
 -1.5927943700000000  8.5392698199999995 13.4847015399999997
  0.0757234400000000 11.2644053999999993 13.5188687099999996
  4.9729845499999996  2.7760268699999999 13.5204169699999994
  3.2574591599999998  5.7890911599999999 13.5519831300000000
  1.5448559799999999  8.4772727099999994 13.4322613299999993
  3.3447944000000001 11.3441395499999995 13.2573503499999994
  8.2529273199999995  2.7588902100000001 13.2636960599999991
  6.5728808699999997  5.5725133900000001 13.3870955800000004
  4.8012753200000002  8.4533567000000005 13.4344357100000007
