Ca Si  O 
 1.0000000000000000
    13.6708636499999994    0.0000000000000000    0.0000000000000000
     0.0000000000000000   13.6708636499999994    0.0000000000000000
     0.0000000000000000    0.0000000000000000   13.6708636499999994
 Ca  Si  O  
  27  27  81
Direct
  0.9766822771288485  0.5892170828578193  0.2303775109336271
  0.2784398021554403  0.5734266934920385  0.1929831631376120
  0.4350689314350670  0.5374465189695605  0.4962009463096357
  0.9926551450902665  0.8905997603158013  0.3709146737046127
  0.2149921413340993  0.7610454033019340  0.8700259152976044
  0.6073351452086203  0.6343246573159993  0.1712024806859953
  0.0783819133475156  0.1063628339238099  0.2153901776351928
  0.1930567173786420  0.8503017708029003  0.6434422963468004
  0.6898962414858113  0.1292037332257352  0.0889075885121567
  0.6034956679565743  0.9919118160468230  0.9382530195888539
  0.3245921438182145  0.0297125097871926  0.1148349168122966
  0.5358005249361112  0.3568110709669758  0.7676645235211603
  0.6803920723764955  0.5831535551888852  0.9114448237511316
  0.2716297378915047  0.0666785430194822  0.6021714246268559
  0.9294825583312727  0.1918999952866914  0.3577722662752181
  0.0947546550945229  0.5441471300169102  0.8732636090624750
  0.1341117406287642  0.2043490514953677  0.4826399493787651
  0.9422465375843317  0.0903050144897027  0.6884605545751310
  0.7148491543912078  0.7531831421638091  0.7038326331343375
  0.5823704013023346  0.8457069762377449  0.2747043256480727
  0.4777882910126165  0.9051109393516626  0.6133403451800209
  0.7519205759908227  0.4071052145999569  0.2923231459484273
  0.9186044299403132  0.5603367889635853  0.4608594432144746
  0.2472365906450980  0.4675356329810224  0.6319501226244766
  0.2876866137129530  0.2396993265308443  0.8748552210159745
  0.3238416616056294  0.8651645911193035  0.3746880907557000
  0.8497077768747989  0.3828995163740076  0.8236519841231831
  0.0619199833801283  0.9642893490492827  0.9821962045536166
  0.0094714045370499  0.4574198397480177  0.6583195634461617
  0.9332499925855087  0.8122483534535143  0.6141646983656369
  0.4394377827036554  0.6680417312186417  0.9987921516575143
  0.1942640573406641  0.3161721132373374  0.2960288042957696
  0.3796147107355577  0.6731432165223885  0.6984923728648262
  0.1663978273969546  0.3634021753995038  0.8487313374674761
  0.8912282012263359  0.9698315263352071  0.1244358149969552
  0.1074441350309276  0.7102558162080711  0.3152140128323202
  0.5908747937808596  0.7967541158235456  0.0178635700166609
  0.6519192969933542  0.6193667735103189  0.3792025041519597
  0.3390005283243389  0.1274179250555249  0.4000315386072920
  0.0546813653576305  0.3245074147162605  0.1401591705583283
  0.3612980896053338  0.8283900256733232  0.1238538649312035
  0.4498834812093236  0.1537013318101523  0.9888588933443134
  0.5558702152661731  0.4884104728818651  0.0256780697245854
  0.9092639827477177  0.2932989606695404  0.5619854360847202
  0.0004682227958583  0.7128339042427652  0.0166043957288682
  0.8739331468644997  0.6306711770912879  0.6998336699817791
  0.6902971247175010  0.3648529959553799  0.0393507311441878
  0.7174308881355861  0.8067896990546022  0.5001712938596971
  0.7453823292283367  0.0691299258185492  0.2837546733925622
  0.9816144922197363  0.8561247094290200  0.7948511438778048
  0.7467169844825422  0.2148586428188098  0.7179120837767994
  0.4031259773408683  0.2747148809431656  0.5621739918384747
  0.5240839908457430  0.1202853661699713  0.6183360771065842
  0.8165440345094803  0.7700986850234587  0.1180040106683384
  0.8730029532552612  0.8916092759070127  0.7124238577275255
  0.6316380011587637  0.5108727947849879  0.4593196590034017
  0.0152562665636710  0.7191448244749336  0.8960344147679361
  0.7950992847478221  0.6281647034055526  0.7920068934342710
  0.1225918532220896  0.6522916428911937  0.2059530862192456
  0.6592543602759143  0.1523601766008397  0.6791007501563371
  0.3507970229810609  0.6083305153877385  0.9451015459436610
  0.0021871054210975  0.4768602413791173  0.7732086736158765
  0.2967819476423496  0.6633051921339294  0.7867151012072306
  0.0908626998119464  0.8258623258231386  0.7779168092280695
  0.9273920605593927  0.9151995975031175  0.2208492804329886
  0.7242622195270012  0.3288099044130252  0.7428157444902905
  0.9590936019612778  0.7284377377284428  0.3303257164736626
  0.6605338741711464  0.8503805895247885  0.5932181446341908
  0.2130457266319089  0.4427741059358749  0.9085397132170213
  0.5650752986626415  0.0833869204744793  0.5064937598145089
  0.8443710204073318  0.8680745762540029  0.0538453501436246
  0.1454064732772022  0.6174887758462868  0.3911198090253793
  0.3397200541898464  0.0394103725846172  0.4782703198126038
  0.8367548980711252  0.1744976133969415  0.7797129964060464
  0.0358477066662866  0.8568345153526566  0.6246273562972740
  0.0585894117962328  0.8498536037992012  0.0108950307612789
  0.2717135065566981  0.2201863025676509  0.3576180192536702
  0.8424455451283797  0.2170249755947204  0.6278631328460363
  0.9920138183808160  0.3322984769875896  0.6514685046983115
  0.0144729992973048  0.5873823545888412  0.0230090693648312
  0.8395592841714868  0.0767805843780762  0.1275191776197695
  0.5599250871030376  0.3566985455231280  0.0281079140160980
  0.7462288412188209  0.0420620784993346  0.3968072719385216
  0.9303622459872899  0.7263505579620056  0.1368871490427015
  0.0750983936556196  0.4359324759997881  0.0984942505808695
  0.4952123013822906  0.0210191292486485  0.0701721277133797
  0.9728432409608592  0.0349881333210430  0.0265239526399636
  0.3176577362762301  0.8862613511619656  0.2072285498948708
  0.7275921020542108  0.7680244824912726  0.1925268145001212
  0.3853162166532179  0.3817001210453884  0.5310504461069656
  0.6155165024998256  0.1587538897003044  0.9495947368328848
  0.6979124468116541  0.6041048994004121  0.2724748710371345
  0.8683494681771623  0.5295566494805908  0.3100485966737003
  0.7782181669261254  0.4078537627723323  0.9465127003881719
  0.6613953040194356  0.5043881079159180  0.0750984112112039
  0.1052410452502757  0.5042166308198093  0.5934479911223458
  0.3670161987168967  0.1127857200155749  0.9046797398202419
  0.4642487177465193  0.7968898438980482  0.9746550196921905
  0.3211429893823863  0.0219781227940197  0.3007926774253213
  0.9919530826422953  0.2530846213216383  0.1811763399454284
  0.8338427279976566  0.8360366091428321  0.5107161733706561
  0.4550339085563186  0.0336047759499086  0.6599628370955188
  0.1794884758432947  0.2750179056902524  0.1816205715723015
  0.5292974025090215  0.8618506066366920  0.1205017489878922
  0.1467325892025849  0.0717915433235998  0.0217926656009037
  0.0304189574738389  0.0584168645409612  0.3414047297589717
  0.3793211213835784  0.6288013376536018  0.5905520928811254
  0.6389487506884761  0.8133790340305237  0.9067804505533197
  0.7012078567545366  0.7488395263162471  0.4085595265226715
  0.3280301446061164  0.2124874839198619  0.6072680097281198
  0.3896116687551046  0.2336216124867868  0.0471772088810205
  0.8119032860078303  0.6548112452280951  0.5800818714185625
  0.1369157383118220  0.8177043576906716  0.3560230819799011
  0.4935483165322917  0.6878675810653704  0.7228662887000559
  0.9720140314617213  0.9434865872574189  0.8793051410471788
  0.7516690205596485  0.3552321136638650  0.1348528379185466
  0.6206711322148254  0.6750564401979096  0.0103378362639145
  0.2615330217268315  0.3708477145114384  0.7700699531152153
  0.8139608955868710  0.6908506991070752  0.9965767766252280
  0.4373880043782019  0.5599993574656127  0.1007509638939307
  0.1062004667130156  0.3296614621710458  0.3691924145553160
  0.5280008406784161  0.6357980404551836  0.3828230698504553
  0.2200144202301367  0.4391221267136258  0.2744707720056882
  0.0974461580560055  0.0957052007464064  0.6086564260334789
  0.8413354579833001  0.3927383212544878  0.4983399113925038
  0.6395670737305613  0.0319317777703093  0.2440042067130119
  0.7871963356170260  0.1868422563047069  0.2933934448245338
  0.5688841026514079  0.4840639815758824  0.8867789373350966
  0.9092447030586835  0.5285819363723959  0.6559554501884012
  0.3703030583587161  0.7145343096154719  0.0816651638537848
  0.3065481060518075  0.8287395829597057  0.5392910044860261
  0.5181506568533437  0.2556236145329414  0.5884798499910429
  0.9733350972306714  0.2047704967052320  0.4924182569840787
  0.3023215193869628  0.8956091775518514  0.0352675692146194
  0.9689792729371564  0.6980379589990279  0.6919073090162815
