Sc Cl  C 
 1.0000000000000000
    13.7939866799999997    0.0000000000000000    0.0000000000000000
    -6.8969933399999999   11.9459428800000005    0.0000000000000000
     0.0000000000000000    0.0000000000000000   27.8102210700000008
 Sc  Cl  C  
  32  32  16
Cartesian
  0.0960405600000000  2.0513087699999999 15.2336670000000005
 -1.7289060700000001  4.9559381100000000 15.2405579099999997
 -3.6153801699999999  7.9614729000000004 15.2063113699999999
 -5.1498633099999997 10.9709200100000004 15.0952450099999993
  3.6898574499999999  1.9755561699999999 15.1009790499999994
  1.7133129899999999  4.9925829600000000 15.2960964700000002
  0.0767228500000000  8.0435090200000001 15.1494139400000005
 -1.6585676700000000 11.0672474600000008 15.0768583100000004
  6.9495465300000001  2.0197559200000001 14.9670141500000007
  5.2020945300000001  4.9307736999999996 15.1639225100000008
  3.4389326900000001  8.0162763500000001 15.0573335299999993
  1.7518172200000000 10.9266144100000009 15.0471574799999992
 10.3084772900000008  1.9457338799999999 15.2113170100000001
  8.6643451900000006  4.9445719800000001 15.1303075000000007
  6.8408827700000003  8.0495166699999992 15.1313932399999995
  5.2129854900000003 10.8979014599999999 15.0996536199999998
  1.6578883099999999  1.0034564399999999 12.6816595799999998
  0.0911014400000000  4.0692183200000001 12.7015198199999997
 -1.8374828100000000  6.9838803199999999 12.7841903499999994
 -3.4821461899999999  9.9689347000000001 12.6435052100000007
  5.1101731700000004  1.0573360599999999 12.5530957000000001
  3.3722604700000001  3.9972105199999999 12.7328191799999999
  1.7860501600000001  7.0195830199999998 12.6888937199999994
 -0.0676460300000000  9.8995575400000000 12.7114276999999998
  8.6659211200000001  0.9105550200000000 12.5626408499999993
  6.8933464999999998  4.0070759000000002 12.7074824100000008
  5.2035434599999997  6.8961584299999998 12.6997979399999998
  3.4630697100000001 10.0680604799999998 12.6379249599999994
 11.9899010900000000  1.1491293499999999 12.8123204099999999
 10.3605395900000001  3.9404442300000002 12.8404380600000003
  8.7476777600000002  6.9171289299999996 12.7745654599999998
  6.9501367299999997  9.9384340000000009 12.4603686699999994
  0.0163570500000000  2.0848135200000000 11.0260582399999993
 -1.7534863900000000  4.9795628299999999 11.1597015200000005
 -3.5725481299999999  7.9371589100000000 11.0084090099999994
 -5.1361481299999996 10.9574707700000005 10.9074347399999994
  3.3487113000000002  2.0593365600000002 11.0492147000000003
  1.6569472300000001  4.8578281399999996 10.9084151200000008
 -0.1512999900000000  7.8896760300000004 11.0393305000000002
 -1.7312676199999999 10.9435813300000007 10.9778485099999994
  6.7701034000000000  1.9722836500000001 10.9401657799999992
  5.1000736099999999  4.9532892200000003 10.9948895499999999
  3.5443816600000000  7.9847190799999996 11.0116919499999995
  1.5940810900000000 10.7679589700000005 11.0148715900000003
 10.0661233200000009  2.2721818800000002 11.0271193699999994
  8.5047067700000003  5.0249904799999996 11.0521846999999998
  7.0488258500000001  7.8961061600000004 11.0475105800000009
  5.1717254300000004 10.7081553199999995 10.8956997500000003
  1.9635317100000000  1.1011640300000001 16.7704332100000002
 -0.0533425400000000  4.0316113199999997 16.9244332799999988
 -1.7017357900000001  7.0799317899999998 16.8589226900000000
 -3.5632218000000000 10.0265536399999995 16.7425738799999984
  5.3098387999999996  0.7767763100000000 16.8225609799999987
  3.5692422700000002  3.8431783700000000 16.8702263099999996
  1.9039396200000001  6.9917554400000004 16.7202172800000000
 -0.0407446200000000  9.9429987700000009 16.8116909099999994
  8.7372006899999999  0.7736810000000000 16.7904400400000000
  6.8980860100000001  3.9443996200000000 16.8015102200000008
  5.1169069800000004  6.9726581100000002 16.7975208100000017
  3.4820625100000000  9.9770939199999997 16.7073875899999997
 12.1515762299999999  0.9144257500000000 16.7168136300000008
 10.3173968699999996  3.9705752300000001 16.8637878299999997
  8.4382677600000005  7.0301067100000001 16.8678297300000004
  6.8303386399999999  9.9592067499999999 16.5896661899999991
 -0.0176084400000000  0.1396252700000000 13.8557864500000001
 12.0371857000000002  3.0054464300000001 13.9913291599999994
 10.3617255999999998  5.9372272900000000 13.9761936999999996
 -5.1138845999999996  8.8997491300000000 13.8289792400000007
  3.3973979500000002  0.0471647300000000 13.8265107500000006
  1.8452007600000000  3.0500069999999999 13.9782364200000000
  0.0226221600000000  5.9031462499999998 14.1016739100000006
 -1.6874836700000000  9.0879253900000005 13.9742484200000003
  6.9137306000000001  0.0271402800000000 13.7932964600000005
  5.2077439500000002  2.9624788799999999 13.9207900500000008
  3.4572138899999998  5.9933502499999998 13.8223419300000003
  1.7633133299999999  8.9323424500000002 13.8092704600000005
  3.4016500900000000 11.8803127400000008 13.7565979400000007
  8.6655021800000007  2.8874396000000000 13.9327880700000009
  6.8419367199999996  5.8473287500000000 13.9257013100000009
  5.2071401300000000  8.8760308299999995 13.8323677600000003
