Ca Si  O 
 1.0000000000000000
    12.5260700000000007    0.0000000000000000    0.0000000000000000
     0.0000000000000000   12.5260700000000007    0.0000000000000000
     0.0000000000000000    0.0000000000000000   12.5260700000000007
 Ca  Si  O  
  27  27  81
Direct
  0.1234915859483461  0.0021451875967482  0.1111382037622335
  0.2467038584328524  0.2437747338151551  0.1490653756525391
  0.5313698941487632  0.3735571563946233  0.0415193743927664
  0.9865863898253801  0.6544025388649433  0.8648379890899539
  0.3240025123602215  0.6090592915415609  0.1563085221462119
  0.8943596906292236  0.3518140478218627  0.0394749805805013
  0.6003583031230066  0.7643647736281211  0.2776883611539772
  0.4809302199333070  0.8060348441290843  0.5195344222090408
  0.7764466668316559  0.5225981660648551  0.2308799958805914
  0.7195477200750114  0.5482361514824681  0.8822049581393046
  0.2657261950476087  0.0857450700818373  0.8373475016505575
  0.7797067188671306  0.5879854279913811  0.5693063850034368
  0.8585153523810739  0.9003664078198508  0.7039228872264005
  0.8770043301689995  0.0784566468173976  0.9779015445387099
  0.0699609470488349  0.4541440587510687  0.2783860037505778
  0.2754442838017032  0.4023646658528972  0.7876086617750020
  0.1035245020984235  0.4630354716203885  0.5752968624636458
  0.6244738485414818  0.8823517871127975  0.9868933663950464
  0.5945125574102651  0.3410893504507000  0.3876646537980388
  0.1295000490976020  0.2531461463970742  0.4337133745859634
  0.2210403398671730  0.0040068209741763  0.3948527550939759
  0.0054539436551129  0.2229452885062913  0.7604894288471963
  0.7094009940867326  0.3053803866655703  0.6518283060848293
  0.4879849984871552  0.0743968627031463  0.4133080415485463
  0.8512157620067586  0.9149770590456542  0.2860586297218521
  0.7124608644211631  0.2207798160157176  0.1868173800721216
  0.0400685522274744  0.7305403634180552  0.1508568537458277
  0.3700804043087736  0.0019837794296216  0.1460735098877780
  0.3541470788523455  0.6105372123898397  0.6560859726953465
  0.7150236195390892  0.8745034220629454  0.5332030541103474
  0.6085254736721094  0.7320266556070658  0.7961797459219052
  0.6944399049342690  0.0640773562657721  0.7221785540077614
  0.2569902475397311  0.8440907946387014  0.0276574448330562
  0.5945874348458854  0.0123163570058286  0.1530665787433728
  0.1333617207951097  0.2526413839296762  0.9312949767963934
  0.8332877837981105  0.8203839799713716  0.9360297156250922
  0.3824186189283630  0.8326587876325136  0.8040245416160057
  0.6418400935009942  0.1511052908054960  0.9211877396501855
  0.6073139923375807  0.6089625061970753  0.0509106192125703
  0.9406174650149647  0.1809523250309155  0.2678988765031650
  0.5023477315710354  0.4106045423664405  0.7130769323498910
  0.7812677823132075  0.1346640758035042  0.4640431364346518
  0.3332249692042277  0.8286141383530509  0.3167490769251649
  0.1402591251685485  0.4789932444892931  0.0477840463928431
  0.8779973567128395  0.3449789063928271  0.4378897643075602
  0.9290864620746969  0.4372905540205347  0.7765973126447481
  0.3538094605889955  0.2574351564377335  0.5479571302092355
  0.0966236329511171  0.9856017944973960  0.5871292687969969
  0.5092906969224984  0.4955269641635404  0.2419167264752632
  0.9113074220405921  0.6948179612599961  0.3622505893708082
  0.3496222821683098  0.0117484230888060  0.6283594766754457
  0.0518268890402177  0.7372271366837324  0.5727140116572875
  0.3048881796126000  0.4277840344178181  0.3672101097950115
  0.2304658580065415  0.6414277175522729  0.4442648795671746
  0.9725314875296082  0.8140566650194354  0.3048334417738364
  0.5541204312286295  0.0810438062377106  0.2499613198712765
  0.9849667245991759  0.2600540520690048  0.3569804000775981
  0.8012782125598850  0.8858315066098145  0.0377723459951924
  0.7783086243330909  0.4233455289647910  0.5004433353797320
  0.6559725660163164  0.6620188806225735  0.7108801411775600
  0.9004903724791573  0.7140622070609536  0.0026416705319386
  0.0269426619841658  0.7351490946482017  0.6993346396754928
  0.4788001432212977  0.5572158889420225  0.1098975017703078
  0.8835965382598053  0.5061438392089458  0.8736030933884290
  0.0129638298364930  0.2002592912222269  0.9262134763736749
  0.2996715865391140  0.9846521486787155  0.0344636035085226
  0.1343537901352938  0.6404751865509293  0.5265495171270796
  0.8040853140689777  0.1123829349508665  0.7296908304041092
  0.6936807426431434  0.0814105932666830  0.0628206684139559
  0.9420340266340519  0.6744799701742046  0.4966397840663512
  0.4559054356234636  0.5155678253434636  0.6718755834830875
  0.0657618319233407  0.8674025380666082  0.5283067442541834
  0.0665212999767684  0.9752530442509102  0.7074267811053268
  0.7937308493406152  0.7030574290260233  0.3470029825795321
  0.0243451457639946  0.4631638542655437  0.1008543230239013
  0.6948884063397378  0.9739313855023961  0.6153649923719091
  0.3339190791684862  0.1679159896120651  0.4618176083959294
  0.2275252525333165  0.9841153466330620  0.5744445105288410
  0.6248650526462011  0.8363248600718340  0.4464017429249557
  0.1722233829125975  0.1646281395521500  0.0205932579013210
  0.8044263571894457  0.3880648208097193  0.3285064437608922
  0.6603799228329397  0.1724669237837566  0.4816317959264158
  0.3444867272815815  0.1218513955294837  0.6878035385400209
  0.2930122432654456  0.8397805073738210  0.8905451765797252
  0.3497765276738833  0.9026531074790416  0.7082358129884313
  0.5418792989341429  0.8600199799298581  0.8040183664948383
  0.2515066050245607  0.2930693377891070  0.6181488846860986
  0.2426535369832677  0.7765217278843244  0.3928692694516317
  0.8365354073544216  0.1079053709583293  0.3335838638934638
  0.4589663525750694  0.0110696435514092  0.5835773518749297
  0.8573348640076257  0.2277777970265215  0.5086473299287007
  0.3644662755357426  0.6785047345256732  0.5316724399592210
  0.5588400264408548  0.6390005915662295  0.9058888645840235
  0.2415907271793946  0.4266216051802361  0.1233867509921308
  0.6888858133476820  0.5004390610941819  0.0307444505738831
  0.8515302652787345  0.3320006274913041  0.7515221046984408
  0.6273406287846067  0.1785870444600740  0.7330143820048904
  0.7907917519221910  0.9872183398304495  0.4813823186362522
  0.7991805235001880  0.8078748985116641  0.6009933243227923
  0.8826294815532725  0.2417172401239974  0.1713889088916156
  0.1760548280506176  0.2289071624220525  0.8160197547993903
  0.0540600196230741  0.0645629211716045  0.4931660377117484
  0.4001220406719745  0.7248395330698295  0.2863738227552616
  0.4489916318526082  0.4023062676481929  0.8339878661064484
  0.2130700451139104  0.5765787489611666  0.3207811715885349
  0.9237193509217176  0.8894512907879326  0.8567483911554062
  0.3283359617182404  0.0904022626410358  0.2296920295032679
  0.4169617661405373  0.7172219618763107  0.7382710059899074
  0.3939450186690637  0.3398089201162056  0.4249853928646415
  0.9326605846845817  0.5372822106215277  0.6845515001912011
  0.1591282844499512  0.3626157685531056  0.9803915138586963
  0.6521080881713098  0.7165882850726524  0.1227536018879026
  0.5439876058492408  0.3774003538220687  0.1974375242993213
  0.1327030241727852  0.6044469877623229  0.0518774859153749
  0.5283990892594405  0.1920263410630788  0.9484137099664939
  0.3532140336114998  0.7675322291828163  0.0711748082199764
  0.6238765782084883  0.5172488282438147  0.3088314970297946
  0.2461111441976613  0.5472824453320155  0.6879978668488999
  0.1987160817399232  0.3481016424145801  0.3066863134247214
  0.6566993398567946  0.9074494075156851  0.2064987015081346
  0.9717059676339027  0.6343568661200201  0.2646850089453436
  0.0605752330938594  0.4209900966544175  0.7932084133331523
  0.1216478105263662  0.8479619425725706  0.0226766543696467
  0.2746128905554575  0.9050964747921734  0.2209344750588173
  0.4809640126552063  0.9389316305912389  0.1190448105431312
  0.3963239411882578  0.9264918613739185  0.3849487796252136
  0.3836320050901839  0.4837884005118923  0.2870745493199383
  0.7103721813785169  0.7853764205373274  0.8725991743619507
  0.6811276537653069  0.0287179258937560  0.8750840726580643
  0.4601183755160237  0.3227986104181119  0.6324150727243261
  0.9891828650167209  0.4141140421536842  0.4602141278150289
  0.2381915189680403  0.4790706997486042  0.4756149071496486
  0.6333218160205076  0.4318777198275277  0.6934187634269966
  0.0129919966916998  0.0830634580518870  0.2200336729716503
  0.7148677023200413  0.2537544648880295  0.9433792458448659
