Ca Si  O 
 1.0000000000000000
    12.0937876200000005    0.0000000000000000    0.0000000000000000
     0.0000000000000000   12.0937876200000005    0.0000000000000000
     0.0000000000000000    0.0000000000000000   12.0937876200000005
 Ca  Si  O  
  27  27  81
Direct
  0.8119114340789126  0.9214056232947143  0.9626274667456084
  0.2838233469821757  0.3073933499420920  0.7045325391616230
  0.1822800746355425  0.1717163427415968  0.9775839283342732
  0.5412630455966283  0.6704697456891507  0.3132091846673259
  0.7897608110964992  0.6526718087017308  0.7202194526382794
  0.0634955593837359  0.2755977113810107  0.3948115247289252
  0.9556027287008038  0.1067953754921322  0.0542645679435207
  0.5685278306549260  0.1966618155313695  0.6933690175055348
  0.3750494735411932  0.7266691491643708  0.9981393306458609
  0.3796847186572307  0.0329429102377440  0.0813316366142702
  0.5625645921504946  0.9761035864792208  0.8933911781394420
  0.8134812458365297  0.7794091550286377  0.4006049801956089
  0.6481819977586145  0.1760306974863182  0.1228180952626982
  0.3909192478443738  0.0529021246364503  0.5971461924845676
  0.1486429294514104  0.6546632658660827  0.7530095158062649
  0.0675186811325863  0.4025981837111177  0.1273093904389236
  0.1956502441044190  0.8178266859625901  0.3038076411995070
  0.9567722341067537  0.6674301950409148  0.2090885088653475
  0.5814859902426499  0.9764307188983034  0.3444227557883970
  0.3582520891002715  0.7030964464712504  0.5523597577447783
  0.0990735357398314  0.0087189078651937  0.4557975427717987
  0.0240209617638382  0.4593766721033257  0.7878317686217149
  0.3036572507629334  0.5013169224150804  0.2315775766864343
  0.6593848023932803  0.4516962899998404  0.8382791263205596
  0.8209908080062680  0.3936456261334611  0.2014417911532665
  0.8441918744394157  0.3041401639894186  0.6246235213778295
  0.8552275403691934  0.9943330557676852  0.5369240236418175
  0.7981125610340427  0.9446349273661216  0.1863078938374808
  0.7734195285959552  0.1500954189900021  0.3820830607574371
  0.8191483446936866  0.0506016732911670  0.7638042472917181
  0.0690078233737000  0.6956471077834259  0.9909556696845648
  0.3046522277195405  0.4471665544263957  0.9251335521633709
  0.6162618175694407  0.2502728198231746  0.3636048000981846
  0.4672810435875672  0.2493998302907191  0.9553760412405853
  0.4986540511119046  0.7823710575463206  0.1359437714352718
  0.9706093094100490  0.4866192813132930  0.5534286296653190
  0.6060098482199078  0.7621495597257727  0.5799685309836787
  0.8282856756500575  0.2256381851362460  0.8836202822288358
  0.0425527110422334  0.7422385700866144  0.5087344579977005
  0.8136727400212110  0.4592503196281530  0.9846437207403185
  0.1726869121255496  0.1192538835075062  0.2282228518248115
  0.2734982376017613  0.8842410703752709  0.7425955343508835
  0.1750767060352925  0.9130098573700602  0.9505576731799760
  0.7514649260890526  0.4625208276974853  0.4463730106416405
  0.0023475581754924  0.8951722090849814  0.7262613373063350
  0.6454674991224958  0.7037898471049884  0.9371827599532462
  0.0994658851136663  0.5194456366681259  0.3503159227795336
  0.3553349938850671  0.2756655362863070  0.4222328430470652
  0.5815023052306586  0.4352721600050721  0.1299825256894994
  0.3340927554671246  0.5157286158792327  0.4631614359373048
  0.0791311398934588  0.2454185680498993  0.6591466429274041
  0.4263818046111843  0.6527495883047432  0.7851680092592861
  0.5563938909322438  0.5288376570647930  0.5991389387405167
  0.3153565474965733  0.0358741118690159  0.3725608660887001
  0.7874443300336376  0.0356205841822117  0.3012794820354220
  0.5558129678814386  0.4096918968385191  0.6459957844042246
  0.0759518141761448  0.3794575342476537  0.6528689669514801
  0.6772495753485044  0.8144167798772706  0.8748847732783320
  0.3987984733603251  0.3614590554551180  0.8977003492310376
  0.4653658330077405  0.5531075582092949  0.7147670416921047
  0.2099698117569556  0.1740068087949439  0.3789346525666870
  0.5854607144159524  0.3380989577854022  0.2501904916038206
  0.5813166404852080  0.1428206517488026  0.2921535048421828
  0.1625067118550904  0.1934442486927019  0.7572462554952657
  0.3460469359557019  0.9489591003748750  0.2576647091806628
  0.5418119265765641  0.8181949957212826  0.2585174602231026
  0.9631273118057285  0.6173858872510942  0.5019956808204641
  0.6880962938557044  0.1408982432585500  0.4807527552728762
  0.0234962113548344  0.9220295932400374  0.5817733261963799
  0.4849453723084315  0.5507540755044282  0.5021406395426680
  0.0764417715150847  0.2043337428807932  0.1486420132785497
  0.3815595795951310  0.4069897971302394  0.3726019830667409
  0.1769204848993371  0.7872972925582101  0.9747018287724817
  0.3155300423574000  0.9368968536591517  0.8800855938960171
  0.3418019135017686  0.7321211086390815  0.7613272904489785
  0.7348897358923523  0.5973470592499126  0.9079552837393055
  0.7169199677081810  0.3316221870282852  0.4437312253710637
  0.8789056682640835  0.9411438018952081  0.7716919275617310
  0.4961453159700848  0.8245350218908508  0.6242019404670180
  0.3266546820672546  0.9127984761154587  0.6291018900826374
  0.0319016359574537  0.1558630273019463  0.5732829894031164
  0.8209436052590446  0.2343378219502750  0.2977317324512434
  0.4920228473468099  0.2787514206405420  0.4503009529449633
  0.1170265515213339  0.0186432974585343  0.2776567983091471
  0.6296432705174295  0.6444421437590947  0.6669475596430227
  0.3809275079695835  0.7553388919194531  0.1761967099931593
  0.5164387242646155  0.6791473587990791  0.8857390130024460
  0.2960923866463598  0.4678917050471570  0.5746120180337679
  0.0984744835464541  0.5926449186313725  0.8788233954450739
  0.9071343060347210  0.5250457928911438  0.0594836855585529
  0.2884481826215499  0.1775781349466099  0.2194925281811754
  0.2163457241198023  0.0083251420616563  0.0378558078234220
  0.8079642256856501  0.0796561325756107  0.9088508245194403
  0.5179198342826530  0.5313098164030766  0.1788741441450912
  0.4356549019669323  0.0530209922770250  0.4337896269423657
  0.0045965723681197  0.7881796827849371  0.3989933858289468
  0.8060122871580575  0.2452375751245415  0.0376732694765149
  0.3476383794806544  0.1945890099895768  0.0067999399843934
  0.3494114848694523  0.6333195323633440  0.3916961078567378
  0.8807890517594520  0.1676559555789520  0.7338637521071335
  0.9239056432181666  0.1517246653947773  0.4244129888234304
  0.1814735547671210  0.4012077781137685  0.3297419431613931
  0.1067756058378674  0.5145876027877526  0.5057943484871615
  0.6308480113693281  0.7495761117061851  0.4396538046696739
  0.5485470126024918  0.1502451686016957  0.9317110531497824
  0.8169884919808108  0.8276277105650049  0.2358639162211449
  0.9695975618596153  0.7706309811979318  0.9850968848086982
  0.7167341392423097  0.8161593125446336  0.6332876052275176
  0.1607533703324616  0.6393858618132406  0.3027468693054493
  0.0886250034875344  0.6009799070706684  0.0856615580289147
  0.2440489979432928  0.9570871586051550  0.4489148065591712
  0.9008520186002738  0.4171211334700121  0.4547558145394321
  0.4083596516804055  0.1697015231692980  0.7426964655097854
  0.0901417450226400  0.9996103214188906  0.8979448855246228
  0.1345622637947399  0.8400873340291054  0.7627754074947117
  0.0131698021335023  0.4614806680390506  0.2786322040604844
  0.9718739454761485  0.2351746623445335  0.8938336201739914
  0.8748194711558859  0.4836567164720890  0.6383338762484403
  0.1656409003484716  0.7284221094995548  0.5361680454249618
  0.2912182411881977  0.4870415733330035  0.0543057130351690
  0.3287440688494578  0.2401624446585081  0.5506834235278227
  0.7048972578203750  0.0194066166344667  0.7080173258408849
  0.7459067658077495  0.5071447980330913  0.3157911855243907
  0.6975690350348652  0.5150051708945093  0.5475847110997969
  0.7000073679150651  0.9785227682045238  0.1018018158317882
  0.9889891319259003  0.7374050587139382  0.6488232468233140
  0.4886132819322653  0.8688518940602993  0.0203678134377557
  0.8501312428372212  0.3842831316397799  0.8675509914403474
  0.7004107932234385  0.2533928332702108  0.8252259154522841
  0.6894072801652192  0.4191584455821625  0.0289712992330520
  0.5370679801965962  0.3538923705690145  0.0285379420281237
  0.1929732109848312  0.4188012547552906  0.8652152872848282
  0.3134277315843917  0.5734606475584859  0.8746271046224970
  0.8990484785774665  0.9676886942057943  0.1148631581476375
  0.6211229315435920  0.6942951004128846  0.0751970415369341
