Sc Cl  C 
 1.0000000000000000
    13.7939866799999997    0.0000000000000000    0.0000000000000000
    -6.8969933399999999   11.9459428800000005    0.0000000000000000
     0.0000000000000000    0.0000000000000000   27.8102210700000008
 Sc  Cl  C  
  32  32  16
Cartesian
  0.0423626400000000  2.0780524800000002 15.2106134999999991
 -1.7680750599999999  4.9767011800000001 15.2438413300000004
 -3.4971666099999998  7.9126360599999996 15.0175280200000003
 -5.1916380000000002 10.9476023100000006 15.0818190899999998
  3.4776495700000001  1.8885447200000001 15.0968131000000003
  1.6728045300000001  4.9288094100000004 15.2555377599999993
 -0.1067628400000000  7.9308440800000000 15.1916317799999998
 -1.7642871200000001 10.9488866199999997 14.9472349999999992
  6.8391720300000003  2.2178559099999999 15.1059354700000004
  5.0445491899999997  5.0802896300000002 15.1443265599999997
  3.4814005699999999  8.0747210599999999 15.2169171399999996
  1.6209636900000000 10.9160816100000009 15.1037838400000002
 10.5007944000000002  1.8251770700000001 15.0679017599999998
  8.6606904700000005  4.9540031999999998 15.1437661699999992
  6.7612179299999999  7.9549577300000003 15.2711390999999992
  5.1828600800000002 10.9311861199999996 15.0385234400000005
  1.8069200900000000  1.0387568400000000 12.7191508800000008
  0.1095842600000000  3.9930760500000000 12.7461872199999995
 -1.7625682199999999  6.9601118000000000 12.5946954400000006
 -3.4273904100000001  9.9343957100000004 12.5974120500000009
  5.3100660700000004  1.1145566700000000 12.6181505000000005
  3.4008545400000001  4.1133879200000001 12.6303459700000005
  1.7022833200000000  7.0068903000000002 12.7528512700000007
  0.0788988100000000  9.9250720500000007 12.7082212499999994
  8.6736419300000005  0.9565286500000000 12.7783473500000007
  6.9695921700000003  4.0841764700000001 12.7181867499999992
  5.1555789299999999  6.9722968400000003 12.6753385299999994
  3.4584494100000001  9.8711457899999999 12.6936962300000005
 12.1443991300000000  1.0440592700000000 12.6455038900000005
 10.3495503499999995  3.9776132799999999 12.8893371600000002
  8.6972327400000005  7.0212987000000000 12.5268286000000000
  6.9582521599999998  9.8005452999999996 12.5799527199999996
  0.0153209600000000  1.9137633100000000 10.9649321600000000
 -1.6719572700000001  5.1695070599999999 10.8842026199999999
 -3.4352797200000000  7.9671669400000003 10.9628470900000003
 -5.1635875799999997 10.8998344100000004 11.0883820699999998
  3.4470909700000001  2.0299477000000001 10.8238632399999997
  1.6178151800000000  5.0228630599999997 11.0293650000000003
  0.0709260000000000  8.0510057699999997 11.0313503100000005
 -1.6889955100000000 10.9107238899999999 11.0222402600000002
  7.1411808800000003  1.8789685300000001 11.0013178299999996
  5.1101535199999999  4.9265455899999999 10.9615161699999994
  3.5615603100000000  8.0338939800000002 11.0622061400000007
  1.7215635600000001 10.9394125399999993 11.0047179600000007
 10.3262295200000001  1.9844591600000001 11.0552778200000006
  8.6769078999999998  4.9456247600000003 10.9448437500000004
  6.9214291399999999  7.9344631500000000 10.8490625800000000
  5.2076382499999996 10.8237662399999994 11.0310000499999994
  1.6505621100000001  1.0471449500000001 16.7734654300000017
 -0.2753864300000000  3.8112515899999999 17.0068885700000010
 -1.9573859000000000  7.0224292400000001 16.7859496999999998
 -3.4164647700000002 10.0798527999999994 16.7704939999999993
  5.1905590600000000  0.9592452200000000 16.6939848399999988
  3.3442057799999998  4.0185752199999998 16.7520554299999986
  1.6804586200000000  6.9604884499999997 16.8726988400000018
  0.0954195700000000  9.9851225800000005 16.8682575099999994
  8.7232438899999991  1.0884612000000000 16.6218813300000008
  6.9132229499999998  3.9618566799999999 16.8602281100000013
  5.1436281900000003  7.0017102299999996 16.8672164000000002
  3.5014884600000000 10.0017708100000000 16.8456017399999993
 12.0992214699999998  0.9904849000000000 16.8831624799999993
 10.1423150900000003  3.8104572800000001 16.7137774800000010
  8.4873545600000000  6.8021419099999996 16.8701202600000002
  6.8359690400000002  9.9151073000000007 17.0399175000000014
  6.9625664599999997 11.8178477999999991 13.6926202900000007
 -1.5906848400000000  3.0810749199999998 13.8859447199999995
 -3.3755921400000002  5.9660570100000001 13.9472898199999999
  8.5811818199999994  8.9014822000000002 13.8586082000000008
 -3.3260784700000001 11.9369828699999996 13.7872685500000003
  1.6848787900000000  2.9697641600000000 13.9714522799999994
 -0.0617999700000000  6.0205096200000003 14.0091692600000002
 -1.7751127600000001  8.9905189700000001 13.8463954800000000
  0.0518458000000000 11.8874919200000004 13.7272315500000008
  5.2406162199999997  3.1107205800000002 13.9245758399999993
  3.2515072599999999  5.8931819200000000 13.9650460299999999
  1.6369467799999999  8.8967663300000002 14.0004879599999992
  3.5284186100000001 11.8922995300000007 13.9140430700000000
  8.7124955499999999  3.0791163199999998 13.9233433800000004
  6.8737067200000004  5.9699205099999997 13.9352626199999996
  5.1164076300000003  8.8571588200000004 13.9745709199999997
