Ca Si  O 
 1.0000000000000000
    10.5648966099999999    0.0000000000000000    0.0000000000000000
     0.0000000000000000   10.5648966099999999    0.0000000000000000
     0.0000000000000000    0.0000000000000000   10.5648966099999999
 Ca  Si  O  
  27  27  81
Direct
  0.2784715467272330  0.4621445935759139  0.5800039144916914
  0.8345176072669584  0.2435966308997320  0.0166537370402151
  0.2909821689206289  0.1287715772544602  0.8914858325338596
  0.5853940363359600  0.4337118572142847  0.8889289546961312
  0.3862194293636348  0.3640368658562765  0.1086721093809171
  0.7536280754951942  0.7221600306791833  0.1343397292365931
  0.9542852431189102  0.1242182965385404  0.5716387431831196
  0.0524849887764306  0.6439427749402272  0.4680374075142038
  0.0253126178013776  0.3290458542404988  0.7762458472369281
  0.9442039262890619  0.4707009593726635  0.2099249705766879
  0.1891188512066281  0.8758347991064723  0.6798049574098010
  0.8491821691381417  0.9212603889362625  0.3600734271643762
  0.3807588468203666  0.6993168407352734  0.7441311458323869
  0.8247717532561827  0.9501516267086310  0.0733638679687941
  0.8305653859115238  0.5841351948639657  0.6307131509164858
  0.1618030571526814  0.5486717886584221  0.0031717044886443
  0.7562048418380121  0.0392513599808905  0.7870530187800863
  0.6476322270417373  0.1408439007904309  0.2460381966766829
  0.5157418459583014  0.5776593170086878  0.3151105915081927
  0.1871654407037307  0.2476552678729906  0.3326565530867036
  0.5587859737701684  0.5394235107427142  0.5996640709198573
  0.5069459927256212  0.8866977676935355  0.9715758581380003
  0.3895494894010137  0.9684084755089714  0.4690743329479682
  0.0475567758537677  0.0480967092019654  0.0990864008086114
  0.5148466284896279  0.2108959512098813  0.6584153614353260
  0.7089989922769344  0.3395368371711874  0.4435435577821523
  0.9432372713016072  0.7976742055405690  0.9161772980190103
  0.8986836881123061  0.8457890180905425  0.6329257206048513
  0.5576274153429694  0.1612030645324034  0.9455169812589391
  0.4606309753560381  0.6169228171935703  0.0436779484962702
  0.2666458020359179  0.8330039294156424  0.1975910041584402
  0.1109363577576932  0.9836780106454823  0.3913213836931245
  0.4740245754283818  0.9489635819540690  0.7177892079721924
  0.2370850565285371  0.1449649633627602  0.6235951579274376
  0.6659525767001330  0.3971531274644438  0.1588176649463681
  0.3574997256882763  0.0865404171712003  0.1736013467717220
  0.2263070002726700  0.8333120128849042  0.9269109080282804
  0.5439779500123286  0.8717186991951075  0.2556636046436426
  0.0370553754051361  0.7156157943698042  0.1881740762250583
  0.1138849516862428  0.2963225780209505  0.0627261102936624
  0.7825843825271471  0.3030953418861712  0.7117530154419561
  0.0045293173957525  0.3645763751586775  0.5194695814443943
  0.8541021273657311  0.5084564750889692  0.9273689333340291
  0.0790618451684025  0.6015077075136659  0.7297218585842840
  0.6693291568330834  0.0609997611704030  0.5179777078764995
  0.2873751719563681  0.7057260004743199  0.4843616940989638
  0.2528632014696072  0.5221781190720048  0.2495575335308464
  0.6708754975691145  0.7273009224460362  0.8519698859599159
  0.7811168291215299  0.6033403387939071  0.3607124509285662
  0.3264793000184410  0.4005462113083566  0.8270355435120533
  0.4418681717700217  0.2768526846946588  0.4025556280384651
  0.0288898151365818  0.0605219827134683  0.8415599961086605
  0.6766959956080441  0.7784704823533526  0.5011065924666914
  0.9119637442433997  0.1943228538608482  0.2850457407363119
  0.4915990398887586  0.0737941835854842  0.8204483801380050
  0.3488258480931788  0.4459308078358942  0.3368939073791845
  0.3441905476441762  0.5861358240021622  0.1460477794491166
  0.3516297165164591  0.0465016126646222  0.6682832194796083
  0.6891797457921361  0.9350477079585923  0.2262299801152526
  0.5784481529346457  0.5240785446739927  0.1078800912184222
  0.1214549614035456  0.9522322679880916  0.9417923608056965
  0.5305744975009272  0.6775246520845981  0.8885506452675074
  0.3969024293177632  0.8389033614972593  0.6240669240207548
  0.2457241926572910  0.3409284011914245  0.9663567346543110
  0.2663324795186993  0.9989605255588014  0.3153808326762225
  0.1148445275698727  0.4112630468988565  0.4071496786753695
  0.9161946744313668  0.1813849269652247  0.7899868969943474
  0.7493291531605438  0.1597186467875903  0.6121388262217931
  0.4279859810194584  0.4920096894350962  0.7596665160360714
  0.7281453926126022  0.8231018069565378  0.9690494169445546
  0.8333336325948202  0.3684407499374479  0.8444043930875723
  0.5721931026071821  0.1662544438283907  0.4221985841090025
  0.0643730445365901  0.1928079758084826  0.9475819849031160
  0.5945780514363217  0.2925037777534862  0.0661877949035604
  0.1875007246284827  0.4890827871528031  0.7712179532630562
  0.7689027881551602  0.9116631743355983  0.5587523056697477
  0.6690894715722164  0.0651102746570087  0.9677906587672702
  0.4851646598366475  0.3823296468587022  0.5094123916845411
  0.6879629321805545  0.2254068589507948  0.8144722184839251
  0.7651580700135219  0.4563548672531685  0.0516398106048290
  0.6257861258899722  0.7288620366347344  0.6222552546115262
  0.3326492061146635  0.2104772741358611  0.4930818381193794
  0.5814691328058345  0.9025766585329603  0.4231769874366996
  0.3749542542849362  0.7887508517700487  0.2902223081954041
  0.3303980473122680  0.8991496548114351  0.8036893992850916
  0.2478592462061018  0.6044457873781313  0.3946925127552195
  0.8750030522068687  0.3727544031308793  0.5950218352397109
  0.1775617556185436  0.7684529191052821  0.0861534820074306
  0.6721712584748144  0.7387978953444770  0.3563503400910234
  0.9094643899217486  0.5214193563225036  0.3965837163076601
  0.6940364350617152  0.4298896238796226  0.6840259565966543
  0.7707987063774968  0.1304053121254350  0.3893838237949402
  0.0356129022260257  0.5094058587289857  0.6163605125900045
  0.8703051084567121  0.0898032706824568  0.1828223655470302
  0.3669074826847738  0.7539918783928355  0.0159854834585078
  0.5852851341817343  0.3672494727802169  0.2796838841946793
  0.1113221391004223  0.5877432481565952  0.2083417482681830
  0.4507398194027382  0.1253231402895859  0.0303953234805958
  0.5544938077723414  0.7575419850701217  0.1460174630142453
  0.0220355464510315  0.2965966299219657  0.1917012768570766
  0.9813668768122474  0.9594133936347153  0.7133824398116850
  0.4534504734732089  0.9978694244883860  0.2493340500376179
  0.9990382101808378  0.7360691871455995  0.6611716704722206
  0.9023278638597109  0.7303556877874643  0.2957847440780587
  0.2862672216912495  0.2876377064706552  0.6963449640421990
  0.7315800916295006  0.5195852626521823  0.2506186456660460
  0.8203797292058876  0.3186620952649342  0.2152291549969082
  0.7040466522842764  0.5311229136581205  0.4839245369576787
  0.9827701314343483  0.8442273530209208  0.1122504548579771
  0.1447117379788537  0.1204814790894579  0.7574801699834145
  0.8392855744188868  0.7203437687025316  0.5007288452773605
  0.2356045479559123  0.1879756095407734  0.1280641600145295
  0.9590902603257941  0.5628911677536994  0.8288919459667102
  0.4386214187476086  0.2603245466119143  0.8579885913336923
  0.3675692894452282  0.4948455146311176  0.9813139922436023
  0.8981645680297861  0.0446849266421737  0.9265588061443415
  0.2355870115798512  0.8644319539630592  0.4770527858483227
  0.2088469704390226  0.4090237793628537  0.1759542330249080
  0.0447937795767980  0.0819109170629167  0.3104290303130567
  0.0921433797164249  0.2598245994572019  0.6121804906143800
  0.7342753626814716  0.5832497380208628  0.8438326563046223
  0.9185542933581061  0.6325213635952468  0.0298468382266544
  0.3213196735675390  0.9527806074762903  0.1005395338175486
  0.9887860587402379  0.3965007708674586  0.9964717326277744
  0.4105898306561848  0.6263279021336301  0.4878412558360096
  0.6069648380591204  0.8715198321282956  0.7903095343211314
  0.2272764077716800  0.6452411482709248  0.6308859334876160
  0.1534722212487416  0.0853801436301988  0.4895324470193750
  0.8240279106716218  0.7848355280781114  0.7493340344198599
  0.0098450797806719  0.9085680631189822  0.5073390207081260
  0.1628497110299691  0.7304608218025903  0.8301393845822028
  0.4048720198502728  0.2149923935696707  0.2577634122251955
  0.5618927566580323  0.0128810602719187  0.6138595340215072
  0.9359836906155961  0.2591128187103007  0.4280540176530890
  0.1481625280192875  0.8335290580756569  0.2860385455300731
