Sc Cl  C 
 1.0000000000000000
    13.7939866799999997    0.0000000000000000    0.0000000000000000
    -6.8969933399999999   11.9459428800000005    0.0000000000000000
     0.0000000000000000    0.0000000000000000   27.8102210700000008
 Sc  Cl  C  
  32  32  16
Cartesian
 -0.0891107800000000  1.9841111000000000 15.1376309500000001
 -1.6213248800000000  4.9663662100000003 15.1697389299999994
 -3.4929573199999999  7.8995915800000001 15.1021536600000008
 -5.2877983700000000 10.9594566400000009 15.1619964500000002
  3.4561880000000000  2.1367449100000000 15.1711541499999996
  1.7381565800000001  5.0247040600000004 15.1834736100000001
  0.0155414400000000  7.8670066800000003 15.1122144200000008
 -1.7568627200000000 10.9874108400000008 15.2884945900000009
  6.9312028100000003  2.1413039899999999 14.8925438299999993
  5.0691278899999999  4.9474780899999997 15.2099490999999993
  3.4825865399999998  8.1539537699999993 15.1267203499999994
  1.6731013100000001 10.9949455599999997 15.1310669999999998
 10.3720344999999998  2.0122280600000000 15.0818706000000002
  8.5501692899999995  4.7593616599999997 15.2001130700000004
  6.8274539699999997  7.8969529800000000 15.1738172599999999
  5.2813222800000004 10.9484594000000008 15.1759676599999995
  1.7870924300000000  0.9242948600000001 12.7373875499999993
  0.0945322600000000  3.9315468600000001 12.6742070600000005
 -1.6418896300000001  7.0912547100000003 12.7394665499999995
 -3.3870997200000001 10.0373733800000000 12.7667980399999994
  5.1177673300000004  0.8976339100000000 12.6478599599999999
  3.4067736399999999  4.0065833499999997 12.6519619100000007
  1.7939688600000001  6.9053927200000000 12.6433459300000006
  0.0653062900000000  9.8926118600000006 12.7269099200000007
  8.7570845599999991  0.8796590200000000 12.5506570699999997
  6.9050670199999997  4.0183891799999998 12.6417122400000004
  5.2725811100000000  7.0646096800000002 12.5559866699999994
  3.3850618200000002  9.9531368699999998 12.6609466499999996
 12.0838383000000000  0.9234461400000000 12.5282983699999999
 10.3433840299999993  3.9435728900000000 12.6678529799999993
  8.6764909699999997  6.7800141199999997 12.7221821399999993
  6.9893599999999996  9.8674609499999999 12.6855302200000004
  0.0331127400000000  2.0112241499999999 11.0016675999999993
 -1.4771319400000000  5.0569258699999997 11.0000954199999992
 -3.5202993199999999  7.9885269399999999 11.0772544600000007
 -5.0101855600000000 11.1044472200000008 10.8791737899999994
  3.4975471100000002  1.7956976099999999 11.0588591100000002
  1.7019842199999999  4.8653273700000002 10.9547009000000006
 -0.0057864500000000  7.9649811200000000 11.0903080099999993
 -1.5270166800000000 10.8214159900000002 10.8792972799999994
  6.7119484299999996  2.0819476899999998 11.0888514399999991
  5.1185930199999996  5.0367331999999996 10.9612294400000003
  3.3850998699999999  7.8602126099999996 10.9044140299999999
  1.6979123300000001 11.1061823099999994 11.0225031399999995
 10.3654308499999992  2.0829789800000000 10.8609001099999993
  8.8819405899999992  5.2081934499999996 10.9691705099999997
  6.9564291400000000  7.7264440900000002 10.9518354799999997
  5.4644722300000002 10.8052009800000004 10.9176553399999996
  1.4677906800000000  1.1867933300000000 17.0462738899999984
 -0.2468120000000000  3.9438053399999999 16.9421862499999989
 -1.8287616099999999  6.9895175199999997 16.7998519799999997
 -3.7271733500000002 10.0548488700000007 16.7837625199999998
  5.2016905800000002  1.0981022700000000 16.6893642600000014
  3.4228838300000000  3.8728283800000001 16.8566639400000007
  1.5988443000000001  7.1814219100000001 16.8681266799999996
 -0.3369613100000000  9.8430120300000006 16.8141321700000006
  8.4037400899999994  1.3050432800000000 16.7483473099999998
  7.1412004099999997  4.0482018999999996 17.0152533999999989
  4.9498344500000000  7.0783144299999998 16.6745970999999997
  3.4527442100000001  9.8848099800000000 16.9655945599999995
 11.9454933600000004  0.8319867100000000 16.8662100799999983
 10.4265430499999994  4.0710601999999998 16.6491059899999989
  8.5233987100000004  6.8218581900000004 16.7240822499999986
  7.0037637300000002  9.8928004099999995 16.9157122999999991
 -0.0497768800000000  0.1289499800000000 13.9373462099999994
 11.9780870400000001  3.1041410100000002 13.9447181600000008
 10.2019088300000007  6.0841666600000002 14.0830300499999996
 -5.1075881699999996  8.9695906099999991 13.9080502799999994
  3.4756081399999998  0.0287154700000000 14.0155340800000001
  1.6409942900000001  3.0643283900000000 13.9012289199999994
  0.0193738500000000  6.0907331899999999 13.9565140400000001
 -1.6177901200000000  8.9197680500000001 13.9213874200000003
  0.1903111600000000 11.9062603700000000 13.8429513600000007
  5.1960683899999998  2.8532142399999998 13.8168990300000001
  3.4610068500000000  5.7629271800000001 14.0032377399999994
  1.8507302600000000  8.9623336800000004 13.8557506400000001
  3.5979048800000002 11.8606043600000000 13.8505059500000005
  8.7174290499999998  2.8789836900000001 13.7624142200000001
  6.8157204399999998  5.8376331500000003 13.9261764400000008
  5.1415400599999996  8.9467076500000005 13.8786769600000000
