Sc  F  C 
 1.0000000000000000
    13.1286234000000004    0.0000000000000000    0.0000000000000000
    -6.5643117000000002   11.3697213799999997    0.0000000000000000
     0.0000000000000000    0.0000000000000000   26.8280942399999986
 Sc  F   C  
  32  32  16
Cartesian
  0.0560798800000000  1.8614570200000000 12.1105221899999993
 -1.6139736099999999  4.6452527200000002 12.1310622699999993
 -3.1894043200000000  7.5258048700000000 12.1238473700000000
 -4.7928035800000002 10.3337882899999993 12.0598758200000002
  3.1458112400000000  1.7378646900000001 12.0608994799999998
  1.6931438800000000  4.5401204300000000 12.1009987300000006
  0.0223040700000000  7.6056617800000001 12.2001184299999998
 -1.6958487600000001 10.1954873799999994 12.0973045500000005
  6.5254402400000000  1.8222285199999999 12.0321353900000005
  4.9713032300000002  4.7641600700000000 12.1018773300000007
  3.3938226100000000  7.6727050600000002 12.1732408000000003
  1.7443955000000000 10.4759395000000008 12.2890322100000002
  9.8726288699999998  1.9314463399999999 12.3228864300000005
  8.0762600399999993  4.6248028100000003 12.2260363600000002
  6.6650336599999997  7.5715515900000003 11.9973892400000004
  5.0096255200000002 10.3120108899999998 12.0239343299999994
  1.7028596000000000  0.9041710800000000 14.7104654799999999
 -0.1607915300000000  3.7762381399999998 14.7257072800000000
 -1.7084954100000000  6.6663236899999996 14.6477743199999999
 -3.2733726600000002  9.5028048799999993 14.5773384000000004
  4.8058547400000000  0.9050017100000000 14.7271383599999997
  3.1822115300000000  3.8488497800000001 14.7462849100000000
  1.6098719500000001  6.6763065800000003 14.8739066799999993
 -0.0498451600000000  9.6082807799999994 14.7291787400000000
  8.2226346699999997  1.0562295399999999 14.7034696000000000
  6.4346184099999997  3.8968939800000002 14.6443264699999993
  4.8275011799999996  6.6660047400000000 14.6411279899999993
  3.1149311800000001  9.6247860400000000 14.6663386199999994
 11.5681663599999993  0.9389176400000000 14.7292578800000005
  9.8753989299999994  3.8507438999999999 14.7295973199999999
  8.2176951799999998  6.5133682300000002 14.7996038599999995
  6.5341220099999999  9.3601211600000003 14.6206974100000000
  0.2477853800000000  1.9660797800000001 15.9887460299999997
 -1.6183577099999999  4.7246399800000001 15.9440724899999999
 -3.2124868800000002  7.6451749400000004 15.8323624299999999
 -4.8378597599999997 10.3881891300000007 15.7271456100000009
  3.1977069000000000  1.8865947400000000 15.7496907999999998
  1.4274047100000000  4.4006011599999999 15.8341194699999992
 -0.3447723200000000  7.6427019100000004 15.7848079899999991
 -1.7621286300000001 10.5514259500000005 15.8997018699999995
  6.5776798500000000  1.9097999400000001 15.8882135400000006
  4.7651707600000002  4.8056777999999998 15.8221745299999998
  3.2907179599999998  7.5667074899999998 15.7924068200000001
  1.5468292800000001 10.4361863100000001 15.9300453999999991
 10.1293520499999996  1.9973828600000001 15.9696205399999993
  8.2468003299999992  4.6333626499999996 15.8181734699999996
  6.5012526900000003  7.6030614400000003 15.9009798000000000
  5.0076837000000003 10.4194798500000001 15.7951148299999993
  1.8025757800000000  0.6609287400000000 10.9196054799999995
  0.0426611700000000  3.6840901399999999 10.8425505399999995
 -1.6659072100000001  6.4964468499999999 11.0728751600000006
 -3.2520235600000000  9.2308794400000007 10.9272901999999998
  4.9617206300000003  0.9769847000000000 10.7923245300000001
  3.3754764200000000  4.0674080699999999 10.9226954799999998
  1.7821997400000000  6.8638417100000000 11.1462789000000004
  0.1033117300000000  9.4724109799999994 10.9078542299999999
  8.1754108199999997  0.9694659700000000 11.0703030400000006
  6.3868489100000003  3.9752539599999999 10.9061016800000008
  5.0588096699999996  6.9656190200000001 10.9798350899999999
  3.3015084899999998  9.6108546799999992 10.9823141100000008
 11.4560357899999996  0.9748869999999999 10.9542641700000001
  9.9216402800000001  3.9433698700000002 11.0710887099999997
  8.2897864800000001  6.6328335699999998 11.0139263399999994
  6.5901262400000000  9.5434655799999994 10.8166240100000000
  0.0679611100000000  0.0558591300000000 13.3327105400000008
 11.4898506699999992  2.7924542899999998 13.4475002499999992
  9.7986980500000005  5.6849192400000002 13.5363872900000004
  8.1719899799999993  8.4793018500000006 13.3298947900000009
  3.3466065899999999  0.0879769800000000 13.4244526099999995
  1.5699027999999999  2.8299031800000001 13.4700004700000004
 -0.0080308500000000  5.7505534300000001 13.4790451000000004
 -1.6072552700000000  8.4776682599999997 13.3491180299999996
  6.5768231899999998  0.0555090600000000 13.3693204500000000
  4.9797629299999997  2.9072596200000000 13.2235352099999997
  3.2590813700000001  5.8560569200000003 13.5311724099999999
  1.6486297200000000  8.6281392700000001 13.5203970800000004
  9.8589300099999999  0.1604526500000000 13.5062855899999992
  8.1594198099999993  2.8285439900000000 13.4483534099999993
  6.6552217400000000  5.7852421999999999 13.4097120200000006
  4.9753120199999996  8.5556567900000005 13.3597768800000001
