Sc  F  C 
 1.0000000000000000
    13.1286234000000004    0.0000000000000000    0.0000000000000000
    -6.5643117000000002   11.3697213799999997    0.0000000000000000
     0.0000000000000000    0.0000000000000000   26.8280942399999986
 Sc  F   C  
  32  32  16
Cartesian
 -0.0476465800000000  1.9117663600000001 11.9652211000000008
 -1.6038129299999999  4.6827638699999996 12.1208371600000007
 -3.3443754800000001  7.4159770099999998 12.1559978100000006
 -5.0039721100000003 10.3629707900000003 12.0669076700000009
  3.3044503299999999  1.6906077399999999 12.0408731400000004
  1.8636124000000001  4.5572309300000002 12.0598486800000000
 -0.1469141600000000  7.5336397799999997 11.9137001199999997
 -1.7025105000000000 10.3369492899999997 12.1587551299999994
  6.5187761699999998  1.8799229399999999 12.2515913100000002
  5.1035356700000003  4.6992765600000004 12.2469601200000007
  3.3636857700000000  7.6357732100000000 12.0459217100000000
  1.5265152900000001 10.5219208799999997 12.2184584600000008
  9.9174657699999997  1.9253540899999999 12.1629720999999993
  8.1996497900000005  4.6794434499999999 12.4647494800000000
  6.5190851600000004  7.6708324799999996 12.0137850200000003
  4.7826156099999997 10.5360361900000008 12.2008030699999992
  1.5413230800000000  0.9364663400000000 14.5930673199999994
  0.0591751200000000  3.8772359900000000 14.4129204299999998
 -1.6455994300000001  6.6762098999999999 14.6769209800000002
 -3.3041308699999998  9.5950311300000006 14.7272647100000000
  4.9568312199999998  1.1116670700000000 14.7659199300000008
  3.2980025199999998  3.6692832599999998 14.7247808300000003
  1.6197251300000000  6.6336051400000002 14.4043943399999996
  0.0517896200000000  9.3713486600000007 14.6768775100000006
  8.1726476100000003  0.9923310300000000 14.8356390000000005
  6.4986090200000000  3.8329922800000000 14.8008521500000008
  4.8604678600000000  6.7080643899999997 14.7213750500000007
  3.3203137200000001  9.5102474600000004 14.6129049500000008
 11.2409166900000006  0.9532709900000000 14.9508591600000003
  9.9310630700000004  3.9017161699999998 14.6989449000000008
  8.1959691100000001  6.7148839300000001 14.7642778600000000
  6.5718560699999999  9.4622561300000001 14.6686286900000002
  0.0951491700000000  2.0275118700000001 15.5398697600000002
 -1.4302469400000000  4.7586299700000003 15.9027670299999997
 -3.3086535000000001  7.5875786600000001 15.9473618399999992
 -4.9422246899999998 10.3728699899999999 15.7160996999999991
  3.3192961300000001  1.7478271400000001 15.9066196899999994
  1.4323884200000001  4.8072673000000004 15.5786766399999994
  0.1224316600000000  7.4537751300000004 15.9528893299999996
 -1.6198597299999999 10.2168819400000004 15.7663803700000003
  6.4646365100000001  1.7202626000000001 16.1013056200000015
  4.6238524099999996  4.8639318700000000 15.9145488400000001
  3.1270089500000000  7.4317572800000002 15.8027563299999994
  1.8830823500000000 10.4594358199999995 15.9071954600000005
 10.1639162600000006  2.1278673399999999 16.1092171300000011
  7.9996593000000003  4.8955277600000002 15.9414748900000003
  6.3932492400000003  7.7505690500000002 15.6619486699999992
  4.9154058000000003 10.5638927400000000 16.1059760300000008
  1.6554942200000000  1.0581391499999999 10.9344170199999997
  0.0845447200000000  3.6265173100000001 10.7938574099999993
 -1.8137211499999999  6.7376231899999999 10.9338778800000007
 -3.3009331999999998  9.4439238200000002 11.0126748800000005
  5.2397365499999999  0.7846588000000000 11.0366465999999992
  3.4735651800000000  3.5530478099999998 10.9790154999999992
  1.6807336200000000  7.0557291700000002 10.8579284000000005
 -0.0253639900000000  9.6180605400000001 11.1706389099999992
  8.1804763499999993  0.9600823600000000 10.9629121999999999
  6.7895320400000001  3.5013748699999998 11.2592647100000001
  5.1160401499999999  6.4471638100000002 10.9759624500000008
  3.1495243700000000  9.7112496099999994 11.0194205800000002
 11.4518629199999999  1.0503680399999999 10.9920949199999995
  9.7681208000000002  3.8201537100000000 10.8739841899999998
  7.9852446300000004  6.4712962999999997 11.1530171800000009
  6.7890857200000001  9.4219787400000001 10.8168046499999999
  6.5997984299999999 11.2280082700000001 13.3498484299999998
 -1.5596170700000000  2.7556410200000001 13.3173074699999994
 -3.2096016600000001  5.6316948599999996 13.4930046299999997
 -4.8233175599999996  8.6131050600000005 13.3691282400000002
  3.4213142200000002  0.0583739400000000 13.4250389800000001
  1.7785308600000000  2.7962118999999999 13.3626867499999999
  0.0282641300000000  5.6415327800000004 13.0600178699999994
 -1.5846636800000000  8.4312362699999994 13.3720973200000000
 -0.0064363900000000 11.1739911000000003 13.5018876999999993
  5.0421112399999997  2.8075775699999999 13.6527455900000003
  3.3413094100000000  5.6530558500000003 13.3838452500000002
  1.7904815199999999  8.6253740699999994 13.3785849100000007
  9.7953544000000008  0.1070032100000000 13.4794738899999995
  8.2227161100000004  2.8228034100000001 13.5755481699999994
  6.3926854500000001  5.7042193699999997 13.4811624699999992
  5.0044686000000000  8.4323399400000003 13.2977444400000007
