Ca Si  O 
 1.0000000000000000
    12.5260700000000007    0.0000000000000000    0.0000000000000000
     0.0000000000000000   12.5260700000000007    0.0000000000000000
     0.0000000000000000    0.0000000000000000   12.5260700000000007
 Ca  Si  O  
  27  27  81
Direct
  0.1494368049994931  0.7447763863685897  0.3809136951972965
  0.4770386881120734  0.3272296809773536  0.1104354190899460
  0.0488194828864919  0.2595745864425155  0.8858777421809074
  0.4428142266489010  0.0006117178013535  0.3763574409212146
  0.8510468159606325  0.5671441154328531  0.5198513659910889
  0.7167700092686692  0.8266516505176802  0.3929705023203606
  0.9978741808085057  0.0452357531133069  0.0021616692226692
  0.1106485545745793  0.4619955181473518  0.5623989958542464
  0.3055123051364075  0.1818653568118332  0.2829412449395540
  0.9810399207413019  0.5592326555735357  0.2913030072480834
  0.4348230698056134  0.4167369302582534  0.3817900506703220
  0.4929071656153924  0.7746446371447707  0.1930866696417951
  0.7132025367892723  0.6302698260507884  0.8021022794859041
  0.4422942351431853  0.0196883882973670  0.9723700769674765
  0.4807289580850179  0.2014137251348587  0.7180574114626534
  0.2013189683595892  0.9238375859307827  0.7730540504723349
  0.9721537936479676  0.7246756261141762  0.6935291891231647
  0.7818599193521990  0.2606193522788871  0.7480857092447990
  0.4120849947349807  0.5147054303544527  0.9304956367000982
  0.8334841167261559  0.3109774023297012  0.3502865679339170
  0.9124300830188558  0.6949844580143651  0.9698435119714323
  0.1043631426297314  0.5203537829502789  0.0271682283429679
  0.3889704232851964  0.6771743499756906  0.6688489143043268
  0.7140526214526982  0.5270911818311729  0.0596739751574117
  0.3088567771056684  0.7564329474448089  0.0279552389536383
  0.9249770486672994  0.0341744058591402  0.7303626005602715
  0.0053730986654234  0.0030025706386760  0.2987294083459536
  0.8993383407565181  0.2090668693373101  0.5584374851809066
  0.9325764425713731  0.5092980998828842  0.8099826234405523
  0.3297805840139804  0.2760299591172650  0.8831192983912750
  0.8023413808161697  0.7365245005017534  0.1918180147484407
  0.6795009544094835  0.8983908352739526  0.0643898333635370
  0.3253953698167102  0.5421414801290428  0.1777445351973923
  0.2561146488882786  0.1132266457077120  0.5266460757444273
  0.0988984613689689  0.8274910965689956  0.1010026879939199
  0.6481396750936247  0.5528297231294412  0.3412763484476775
  0.4030152074832729  0.4433973872092363  0.6617063500363640
  0.7516368014868190  0.8947050311869564  0.6107502081658492
  0.6390783653612027  0.6656830258812221  0.5597807428826439
  0.4528252476634730  0.6965575060653499  0.4185081969045358
  0.4443381731061697  0.8722036704249617  0.8001114036565339
  0.5637142814945150  0.7311987319246979  0.9468317940104117
  0.1103470465996118  0.9531534711206308  0.5345892821930581
  0.2270971086701575  0.9581998535853623  0.1833435067822549
  0.1806272637786632  0.3953416618300871  0.3066049151888821
  0.7705419097929358  0.8610733198840497  0.8309801286437006
  0.6017424978464913  0.2838336333742347  0.9133297490753284
  0.1591698122395931  0.6496012492345963  0.7901852991401134
  0.2349006679668882  0.1549126908918759  0.7481863673123332
  0.7369571605459653  0.0749504353719882  0.4518861710017587
  0.0307601562181913  0.2761190165790228  0.1670836287838084
  0.7362040408523982  0.0473156856060999  0.2119467598376825
  0.6215932666830059  0.1997248314914414  0.3218138881548642
  0.7834227167818796  0.0964169001131241  0.9876387574075508
  0.5100039876832877  0.9898694618503648  0.7917865108529650
  0.5691639851924825  0.3062014414736625  0.3884248028312152
  0.1219433948556890  0.1014929710595582  0.5215883265860720
  0.9740055212848083  0.1877643873936518  0.2409547791126826
  0.6339627033858185  0.2854392702579500  0.7806747750890741
  0.1482196243514526  0.0579694780565652  0.2018352843309993
  0.5156589065844275  0.6764405739389927  0.5577950929541349
  0.5086673122535639  0.8060040092383324  0.3649140775997579
  0.1122374128517564  0.7705854885051735  0.7886722132320830
  0.7901609195861111  0.0266138828858533  0.3297379377570139
  0.8397590233808369  0.0791750612921690  0.1349343704769333
  0.3068088211226666  0.3645927709169755  0.9728323193148369
  0.0695396361348771  0.9146530348305574  0.6471811326297873
  0.2751842908430178  0.6294418313166060  0.8357983940693290
  0.0866700082308338  0.4283834937853612  0.3794157864358095
  0.6860575862980168  0.8256048233803578  0.9183400052849776
  0.5519880513201666  0.8736000900521870  0.0476787963024316
  0.2579883355274240  0.3601789404018978  0.4040620689489999
  0.2855187516914722  0.4406045152230508  0.6239148128662860
  0.4640129154635093  0.6976260726628543  0.0336200236786159
  0.8711394196264269  0.8376531873125409  0.2882122541228014
  0.7147807684293637  0.2168558518354120  0.0038882618411042
  0.6786925532110231  0.9752562375908803  0.5192384435022317
  0.6754324836121784  0.9391981227950985  0.2015710498184985
  0.6998000394377486  0.7024190548192688  0.2438216910810813
  0.2148569671093966  0.9352836603978740  0.0334062966277532
  0.8889302534633767  0.5722385009823512  0.7005995894961468
  0.9007429129806873  0.8958639892639909  0.8899366385466470
  0.5916133951031727  0.3917465613716034  0.9835190335037245
  0.5221551164890504  0.5859472332503330  0.3726060895396560
  0.1206995538105727  0.0984541919372956  0.7791595807783287
  0.7911901282684831  0.7569250012174609  0.7541927515972686
  0.9705013998804093  0.3909290950793026  0.1763136442635240
  0.1547071475730217  0.6129982684114011  0.6591976142557082
  0.4727357359491045  0.3603418590188303  0.6059957113444200
  0.9377701130522182  0.3231962123794613  0.4972906394423789
  0.6167971087499909  0.1030583399262498  0.4109335106701463
  0.4768926470952182  0.1942328264172242  0.2409725284945717
  0.7098589461818431  0.0056827967590793  0.0178243064265169
  0.2767782209424025  0.5470653868292289  0.0425769255640436
  0.6769190416467414  0.7918356994651953  0.5994761094261807
  0.8749627688492878  0.0870393124100376  0.8924585133246101
  0.3310550563744254  0.1286093243930459  0.4294996802668355
  0.8670672445547565  0.8984888213142669  0.5669893150844598
  0.2505595769463208  0.9585589023532519  0.4877384351197143
  0.0664996132066961  0.8799001602258330  0.4338901546933714
  0.7030727722262449  0.6620512730648959  0.4346407875734368
  0.6266878470262420  0.6294285941240947  0.9695540628465272
  0.6957639267543611  0.5623644878241938  0.6265811136294144
  0.7610280111798832  0.2081287874009965  0.5764606728207650
  0.7576122902075431  0.4939857992171526  0.3927006483278474
  0.7236016994955320  0.9534252826305456  0.7365740387847105
  0.4618936905190534  0.5241598825489558  0.7323555991623869
  0.8634872685527064  0.6419732573744198  0.1301288464777859
  0.5264540115135872  0.7317370468151623  0.8035129446027365
  0.7853415157347835  0.8276383023566050  0.0955985524589915
  0.9017628929105457  0.3885602850694591  0.7970568901499032
  0.4096865625052390  0.3325245507968581  0.7861199003358594
  0.0004299385202222  0.9004171004952072  0.1143059970126304
  0.8502087302721443  0.5585891560561294  0.8997186731353090
  0.3306733875828572  0.6916565554878744  0.4300769395349059
  0.7257372583739352  0.2127170149935295  0.2266635010023096
  0.0501661694370221  0.2234016080063420  0.0555723678695712
  0.3612622442633643  0.8637514455850877  0.7029415762485759
  0.3671452043617830  0.8845992398254201  0.9079261109031004
  0.6202418691576846  0.5093387319406645  0.2101636754385054
  0.2084475266384428  0.2746029017880308  0.7898012944203567
  0.0163430301762644  0.6359672491052660  0.4281390787373853
  0.4206264079635512  0.4269938240804977  0.2038928530656463
  0.9490044267675335  0.2058748729649443  0.6792503155419056
  0.1486152871571051  0.3030221809394327  0.1915297663193643
  0.8767864493811706  0.1120701744441792  0.4564224261879424
  0.3539853649229167  0.6549010727227293  0.2371454111305461
  0.0540284398857742  0.5858404527517409  0.8664423015359166
  0.1287282467685395  0.7539564077160672  0.0041446686790031
  0.2315357322767636  0.5073542236311948  0.2651616133392197
  0.1968047264624898  0.8268016640494583  0.1965809874924857
  0.3506143786518836  0.1495529188324830  0.8490937604531987
  0.3086003016109601  0.1386970861571107  0.6435090678880128
  0.4971114419766136  0.2176158723366547  0.9693962495818720
  0.3517148930191193  0.9483130399239346  0.2461869940053025
