Sc  F  C 
 1.0000000000000000
    13.1286234000000004    0.0000000000000000    0.0000000000000000
    -6.5643117000000002   11.3697213799999997    0.0000000000000000
     0.0000000000000000    0.0000000000000000   26.8280942399999986
 Sc  F   C  
  32  32  16
Cartesian
 -0.0530476900000000  1.8144048600000000 12.2014742799999993
 -1.5867539799999999  4.7433953000000004 12.1122445499999998
 -3.2756466799999999  7.6312562699999997 12.1216791199999996
 -4.8646236900000002 10.3272555399999995 12.1952869199999991
  3.2909175099999999  1.9586783400000001 11.9603663400000002
  1.5409943300000000  4.7351614800000004 12.2360481300000004
 -0.0251061700000000  7.4994196200000003 12.1928968500000003
 -1.5827863600000001 10.4236562399999997 11.9447299000000005
  6.6188840500000001  1.8971855099999999 12.2071757000000005
  4.9558007300000000  4.8114980100000002 12.0756062400000008
  3.3084217100000002  7.6046612500000004 12.0989974500000006
  1.7373484800000001 10.3375688199999995 12.1251676899999996
  9.7280296400000008  1.8132776799999999 12.1508035000000003
  8.2753585199999993  4.7710673799999999 12.1646584400000002
  6.5430502500000003  7.6374925600000001 12.1046592000000004
  4.9466186900000002 10.3896895100000002 12.1713200300000004
  1.6199369699999999  0.8983048900000000 14.6341143200000001
  0.0530477200000000  3.7577162799999999 14.6601551600000004
 -1.7032973700000000  6.4219129199999996 14.7379106600000007
 -3.2399839500000001  9.5023459599999995 14.8469659200000006
  4.8471182700000002  1.0692186100000001 14.6261650200000002
  3.2202117900000000  3.8664658300000001 14.6483890799999994
  1.6841677600000000  6.6489798799999997 14.7747698500000002
 -0.1517814600000000  9.5006856600000003 14.8111513600000002
  8.1096251200000005  0.9548145900000000 14.6384424200000005
  6.4829164199999996  3.7584352299999999 14.6251425600000005
  4.9221468499999999  6.6825817900000004 14.6277515099999995
  3.2670567099999999  9.5241479600000005 14.7298755900000007
 11.4862695099999996  0.9548111800000000 14.7630344299999994
  9.8834968700000001  3.7686596500000000 14.6688077900000007
  8.2568480399999995  6.5996588599999999 14.6935111400000000
  6.5904869000000001  9.4098133199999996 14.7142993299999993
 -0.0253622000000000  1.9003504200000001 15.8699150899999992
 -1.5026122700000000  4.6846628600000004 15.9424144000000005
 -3.2747795200000001  7.5849863400000004 15.8084877299999995
 -4.9478565200000002 10.4457504199999995 15.8613863700000000
  3.2206591000000002  1.8900867400000001 15.8211837600000003
  1.6617664299999999  4.6953571399999996 15.7630783300000008
 -0.1125740400000000  7.5938758899999996 15.9655440300000002
 -1.6918168400000000 10.4365108499999995 15.8463414999999994
  6.5345319499999999  1.7756472500000000 15.8259683599999992
  5.0127819699999998  4.8102790799999999 15.7082269199999995
  3.3095336600000000  7.5151433100000000 15.8104935300000005
  1.5749304799999999 10.4224129600000008 15.8200750200000009
  9.7876075199999999  1.8850832799999999 15.7576964900000007
  8.1382385500000005  4.8279978600000000 15.7485386900000002
  6.5700270700000001  7.5471558200000004 15.8563066300000006
  4.9073591499999996 10.3791814400000000 16.0068807900000003
  1.7059759900000000  0.9842697400000000 11.0118848499999995
  0.0656065600000000  3.7739199900000000 11.0765015200000008
 -1.5982734900000000  6.5876648500000003 11.0200147400000006
 -3.2405119700000000  9.5198156399999991 10.9109038300000005
  4.9473534600000004  0.9824421800000001 10.8598567799999994
  3.3281571400000001  3.7356143600000000 10.9699001200000001
  1.6283329600000001  6.7975615200000004 11.0233581699999998
  0.0736056000000000  9.3751924800000008 11.0703557299999993
  8.1871691599999998  0.9014684800000000 10.9983634200000004
  6.6559905700000002  4.0708791499999997 10.9503880500000008
  4.9409891300000002  6.8370178199999998 10.8719666400000001
  3.2469631400000001  9.5067895999999994 11.0158523200000005
 11.3926673899999997  1.0071363499999999 11.0365908699999995
  9.8543302799999992  3.8861312200000002 11.0976474799999991
  8.3894255100000006  6.6555118400000000 11.0112044000000004
  6.7195366400000003  9.4195006800000005 10.9732216499999993
 13.0397925600000004  0.0370647500000000 13.4556760999999998
 11.4445053399999992  2.8095309300000002 13.4542754799999997
  9.8522423200000002  5.6325950999999996 13.4682574400000004
 -4.8725783900000001  8.4876542599999993 13.3237728400000002
  3.3061799299999999  0.0938928500000000 13.3578527299999994
  1.6572431999999999  2.7923059299999999 13.4327289800000003
 -0.0325038300000000  5.6462973200000004 13.3939189200000008
 -1.6737560300000001  8.5145464700000009 13.4634928100000000
  6.5717121499999998  0.0367641400000000 13.3586969900000003
  4.9316993399999998  2.8492889400000001 13.3030817300000006
  3.1961222199999999  5.7383152099999997 13.3632789499999998
  1.5891061399999999  8.4386479399999992 13.4515949599999995
  3.3613182400000001 11.3443799999999992 13.4291970500000009
  8.2249736099999993  2.8534849200000001 13.3759767099999998
  6.5375512599999999  5.7046899800000004 13.4166312699999999
  4.9286622900000001  8.5398330799999993 13.4269781800000008
