Sc  F  C 
 1.0000000000000000
    13.1286234000000004    0.0000000000000000    0.0000000000000000
    -6.5643117000000002   11.3697213799999997    0.0000000000000000
     0.0000000000000000    0.0000000000000000   26.8280942399999986
 Sc  F   C  
  32  32  16
Cartesian
 -0.0233762800000000  1.9234800200000000 12.0134865200000007
 -1.6757187499999999  4.6669089799999997 12.1337419799999999
 -3.3258201900000000  7.3568519300000004 12.2429120400000002
 -4.9836936900000000 10.3961524199999999 12.1761718900000009
  3.4301338000000001  1.9830326300000001 12.2427124000000003
  1.6817472099999999  4.7439366700000001 12.2709888899999999
  0.0375031000000000  7.6112880199999999 11.9188830400000008
 -1.7442567099999999 10.3151581300000004 12.1272431899999997
  6.5796600900000000  1.8324705500000000 12.0182309099999998
  4.9241780799999999  4.8119587399999997 12.0698822499999991
  3.3030894800000001  7.5841728699999997 12.2113621699999992
  1.5210581400000001 10.4697950700000000 12.1549518299999999
  9.8744643399999994  1.8997231900000000 12.0263248899999997
  8.1565538199999992  4.6833140300000000 12.3140642200000006
  6.6407632799999998  7.5311726200000004 12.1343324100000007
  4.9626607600000003 10.4802527600000008 12.1392801899999991
  1.7592401700000000  0.8369901199999999 14.7031425500000008
  0.0919762400000000  3.7838325199999998 14.7097970700000005
 -1.5517048000000000  6.5646689000000000 14.6766830299999995
 -3.2934209499999998  9.3802632700000004 14.6338398600000001
  4.8751127199999997  0.9601771600000000 14.6651579499999993
  3.3713972000000001  3.8297880499999999 14.5918836499999998
  1.4801561999999999  6.6118787399999999 14.7317654699999991
 -0.1409696200000000  9.6209622299999999 14.5447962200000003
  8.3239783299999992  0.9973235800000000 14.6157113600000006
  6.6809496199999998  3.9704234299999999 14.7450870100000007
  4.8284968599999996  6.7552273600000001 14.8043552100000007
  3.2167032600000001  9.5791896399999992 14.7320947899999997
 11.4492352400000001  0.9894714999999999 14.6162848699999994
 10.0126877200000006  3.6777801000000001 14.6736600599999996
  8.1721706699999999  6.6511501900000001 14.7239037800000006
  6.4761941099999998  9.4522235499999994 14.7037052399999997
 -0.0122389300000000  2.1292795700000000 15.8554027400000006
 -1.6735416800000000  4.5043080499999997 15.9932604499999993
 -3.1740193200000002  7.6575473399999998 15.7936598499999992
 -4.8771397099999998 10.4304234000000005 15.9280400199999992
  3.5643782000000002  1.9281111000000000 15.9397551300000000
  1.7058935700000000  4.6474297099999999 15.7242166999999995
 -0.0270689100000000  7.4842565600000004 15.9572260000000004
 -1.7887758899999999 10.3644987799999999 15.8376265600000004
  6.6130820200000002  1.9087595700000000 15.8067454800000000
  5.0116624300000003  5.0292673099999998 15.9452772199999995
  3.3412863300000000  7.5188932099999999 15.8535052600000004
  1.5869362600000001 10.2898277799999995 15.7424804799999993
  9.8582887800000005  1.9347514400000001 15.9945759600000006
  8.4064711699999997  4.8472706299999997 15.8230958499999996
  6.6614613900000004  7.4742029099999998 15.8369423699999992
  4.8173858300000001 10.4990739299999998 15.8569090500000005
  1.4038027700000000  0.6512597500000000 10.8948511999999997
  0.0193880300000000  3.9475890100000002 10.9770352300000003
 -1.7294989300000001  6.6582627399999996 11.0517735800000008
 -3.4107454800000001  9.4072548099999995 11.0434155799999996
  4.9073859799999999  1.0040297600000001 11.0071895099999999
  3.4430152399999998  3.8665680400000002 10.9403638099999991
  1.6767180900000000  6.5801348600000003 11.0473087200000002
  0.0630417200000000  9.3619439399999997 11.0039690199999995
  8.1467537700000001  1.0442929700000001 10.9954593999999997
  6.4393351299999999  3.7897566000000000 10.9332207900000000
  4.9021467599999999  6.7274224100000000 11.0194320900000005
  3.2838735600000000  9.3141979999999993 11.0582212500000008
 11.5715805700000001  0.8171334300000000 10.8633427499999993
  9.7794670099999994  3.7282212200000000 10.8886291800000006
  8.1677372600000009  6.6475835300000004 11.0287102099999998
  6.5345754200000004  9.5768479299999996 11.0358186800000002
 -0.0209823900000000  0.0848488800000000 13.5141974999999999
 11.4709157499999996  2.8450612400000002 13.3768216100000004
  9.8605495500000000  5.5276177899999999 13.3622041500000002
  8.0259180600000004  8.5331083900000007 13.4754334799999995
 -3.3395530400000002 11.2915844199999995 13.3928981999999994
  1.6134235100000001  2.8505735799999998 13.3697252300000002
 -0.0410526000000000  5.7756283399999999 13.4016592100000000
 -1.7478558799999999  8.4604920999999997 13.3373595300000005
 -0.0490022200000000 11.3580905199999993 13.3852764600000000
  4.9533631199999997  3.0504917100000002 13.3903191100000001
  3.1997632600000001  5.6781237600000001 13.5435879400000001
  1.6803473700000000  8.5958512999999996 13.4252751099999994
  9.8125429400000002  0.1119140200000000 13.2942286000000003
  8.1077685699999993  2.7083550100000000 13.4484235200000004
  6.6123361400000000  5.7268983899999997 13.4433544800000000
  4.9066110199999997  8.4559230799999998 13.4722458199999995
