Ca Si  O 
 1.0000000000000000
    12.5260700000000007    0.0000000000000000    0.0000000000000000
     0.0000000000000000   12.5260700000000007    0.0000000000000000
     0.0000000000000000    0.0000000000000000   12.5260700000000007
 Ca  Si  O  
  27  27  81
Direct
  0.1226856532016826  0.1047437807708244  0.5693468845376083
  0.5336438020863686  0.9978650582345460  0.2417071387913368
  0.9282135378454694  0.2558752904941454  0.4566590909998108
  0.5933974590593857  0.6587943960076863  0.7542031275571667
  0.2268579865831821  0.8633056337702087  0.8044804763185899
  0.4452400521472417  0.5133498655204705  0.2023896345781239
  0.2427688460945851  0.5296256160152385  0.9083572732708662
  0.6652115619663629  0.1931850013611612  0.4297936743128531
  0.2480235652523097  0.8318861965484784  0.2517892954454190
  0.7283416354850324  0.1552849121871425  0.1914000376814116
  0.7990179633356670  0.6061217436913572  0.5252544940272567
  0.8728270694639260  0.4337884053019023  0.2431790338070919
  0.1027595718369768  0.4016224562053382  0.7133598015977876
  0.9171323200333383  0.6112060965650039  0.8421497979813299
  0.4106588275492633  0.1177238279843558  0.6573242405638799
  0.5206407452616821  0.3616600673635066  0.8166008612437898
  0.1188343303206832  0.7663122264205772  0.0384530910333409
  0.2672236519514899  0.3260987795852969  0.4075085130451929
  0.8975914672359327  0.7085222412137246  0.2953246085963115
  0.1711249282496425  0.3690945332414716  0.0800194650037881
  0.1130375552747190  0.8542112019172813  0.4998980262763979
  0.7694602536948939  0.8871559323874127  0.7575248286174354
  0.4826815449698109  0.7368733218000537  0.4697316875923573
  0.6880682049517525  0.4735298493462036  0.0854533017937789
  0.0161588016033760  0.0621236732670343  0.9548303362507153
  0.5121933471551732  0.0043210168871801  0.9451995829497998
  0.7928368825976543  0.2619640797153457  0.9377793473930769
  0.3180687845429572  0.0572068142681623  0.1772179941513978
  0.3705083054780949  0.0392209040824456  0.4269618012672770
  0.6566830163012022  0.4264663218391722  0.3511157170604986
  0.7951670731522337  0.9908211106915416  0.0476068671179388
  0.4209518077098403  0.5217654300191520  0.5808897419541803
  0.5198517459985453  0.6660822069491867  0.0089494629999673
  0.9965302620853946  0.3219183015902035  0.9741128989379749
  0.5321071748760784  0.3270888339279598  0.5638994097909400
  0.2723652478391067  0.2008469352318804  0.7990547386370984
  0.5764377406481043  0.2037667049601351  0.0529826338189073
  0.2389802228472298  0.9917374292176236  0.9941062879259017
  0.0827701378006030  0.4722892327761221  0.4329649602788424
  0.2344478036606852  0.6212103908089288  0.6163670217394601
  0.7481395401750109  0.7287801313580395  0.9412684169895266
  0.8244347700435969  0.1442888823070604  0.7044212031387338
  0.3181670994972884  0.6447206482160805  0.0769841993538277
  0.2381349617238288  0.6493008916603531  0.4027839945010685
  0.5203300380725957  0.9039105481607558  0.6777375904812922
  0.1319163608378366  0.0856320082835239  0.3123516601775337
  0.8147856151211034  0.4161618704030873  0.7422318484568583
  0.8611177392430347  0.8278847284104270  0.5543830467177654
  0.9169061197965522  0.5990391998448036  0.0731090070548863
  0.0047220492939924  0.9780871486427906  0.7243621742493854
  0.0316290025522770  0.1996095199851190  0.1601118738758446
  0.9018080690911034  0.8692426890477220  0.1420611628387834
  0.7574635715751229  0.9201571977483758  0.3657443364119791
  0.4699317343747879  0.2580940023487016  0.1849439512951787
  0.8970283416905700  0.7639160215454648  0.4526375431400271
  0.5008830095951882  0.0683020244977076  0.4239395772177546
  0.8358702386303125  0.5796268079293825  0.1793005699313511
  0.7869959739966326  0.7203237495878594  0.8221296535944633
  0.9474136101746198  0.2296020563512738  0.9113138646039819
  0.6897167619213368  0.0297019879339649  0.3413470202545570
  0.6444183339227706  0.7076403772292506  0.0016664276983922
  0.3408879824238568  0.6750260744191913  0.3218189280436721
  0.1103115837609082  0.3459966525813762  0.4836720559600896
  0.9266014176832796  0.9395657728241977  0.0466308012010152
  0.9541958012369400  0.9071229204371362  0.8137669316872729
  0.3074577485196873  0.1250328011898384  0.4989600832503729
  0.9344592621628331  0.4619555894227000  0.7472473609040984
  0.1788681469926321  0.7193046733732127  0.6870974168274646
  0.0201367947009717  0.6055033957178907  0.0096798221628971
  0.3827293780092239  0.1419870478130810  0.8092797709097904
  0.6780123063339099  0.8008143679541947  0.3639447184951066
  0.4307331174103290  0.7086505631854205  0.1024637759488810
  0.3931923292780576  0.9337317634341815  0.3638953789975626
  0.6312344813656637  0.3502696105003404  0.4763011295641809
  0.3973050749357140  0.9346097036021672  0.6626898324853685
  0.3571439262274600  0.5627222624494354  0.6762744220653404
  0.1748218443613999  0.2563767614263691  0.7152128800174357
  0.3233329839287182  0.5134330903467728  0.0495207347555937
  0.5844052779523026  0.0660496021497565  0.0921094301724324
  0.5206375215849823  0.5324269264022953  0.0342307363762138
  0.1799267679327994  0.1099021999717389  0.8762520958289390
  0.7422911455867641  0.8885024896076742  0.9455592440406289
  0.9459414740616968  0.4859952642768242  0.4809302079582822
  0.0664798560123007  0.0683698438536588  0.1772063264854818
  0.2564952926177165  0.0481975455988989  0.3335656929906986
  0.5245370686895411  0.5760929341764814  0.4677143022512248
  0.7525471061554022  0.3068023905343016  0.3348032359710588
  0.0954770514614720  0.4058505748411114  0.9350164472975162
  0.3663437885945073  0.9387017532234769  0.1801501859721365
  0.0832657329872817  0.4785305862094016  0.2993352751501469
  0.1460779821604062  0.9606174370732399  0.6933658553720360
  0.7227001342001123  0.4355987480510647  0.8206542331313812
  0.8383205674245792  0.8797486913293634  0.2645701644649918
  0.7459911169265380  0.1138582516303996  0.0284674099697671
  0.4637030936279296  0.2815541139399668  0.0474403104884453
  0.2530827945237413  0.5281365727638437  0.4625196729700536
  0.9941636379167608  0.1097422399842888  0.7500764110371408
  0.6564492207052970  0.3095673742841928  0.0728235855300186
  0.1159196603563608  0.7099977949987506  0.3780408140781585
  0.4041140405570142  0.3778786115677143  0.5379245142331154
  0.8465427264896332  0.5354552944379202  0.9842776249853304
  0.5806430923665603  0.9447973402671388  0.7669886245246913
  0.1063941659275415  0.2635411258279732  0.2505238825904693
  0.1263264934652289  0.5543285523711746  0.5829613973097707
  0.3256255186183695  0.9182729786756739  0.9306763701623892
  0.5306035763810995  0.7692477241465200  0.6438827261862659
  0.9448826423610917  0.9035349171767361  0.6069085259782198
  0.3620443443154956  0.1737373893008741  0.2147222361043807
  0.8931930805112855  0.1738949447033267  0.1730284638358240
  0.3127739290934826  0.1063453213976930  0.0219474591791360
  0.8604499998802496  0.1556289738122172  0.5954686250356257
  0.0481535038523655  0.0402514364042353  0.4244028102988407
  0.2917526143475168  0.7031451836050733  0.5269649778422122
  0.7881630495438713  0.5098306619713924  0.6537480055596049
  0.2695239751973285  0.7443445270543754  0.0067827930069048
  0.8280811004568871  0.9495473640176048  0.4574757884955137
  0.3634953053910763  0.3420610638452443  0.2450604690856749
  0.3395259183447003  0.3578075198366287  0.7937607900961754
  0.1245019627065792  0.9480736304363618  0.0321937958194390
  0.0661035424518624  0.2290976994380520  0.0327125666709511
  0.8122335361370325  0.2631697459777887  0.7455338450128411
  0.7286446690781705  0.5345305886044066  0.3476149191246735
  0.5696435849392506  0.2067011632539176  0.2486070770800418
  0.8385847244985857  0.7388466845546927  0.0497917942339457
  0.9916455536333423  0.7729482966325432  0.1638769310725551
  0.5582405215682172  0.1932789126996735  0.9109664659386384
  0.7390829174673300  0.9317704012511505  0.1351704684709570
  0.7412892303811172  0.0577430654626711  0.7136165692831031
  0.9574254470875541  0.3490864053929125  0.0863355593574042
  0.7668271676591299  0.7868203682399986  0.6184616028810312
  0.2009577688772296  0.6719369554856390  0.1768476824734334
  0.5483200532968441  0.2019789415195668  0.5897319566312498
  0.5629566655782698  0.4425282351128486  0.2646696952835167
  0.4869030230551162  0.7170547681754932  0.8971437809304913
  0.5521345226395828  0.3978981907334063  0.6714938029246205
