Ca Si  O 
 1.0000000000000000
    10.2628755900000002    0.0000000000000000    0.0000000000000000
     0.0000000000000000   10.2628755900000002    0.0000000000000000
     0.0000000000000000    0.0000000000000000   10.2628755900000002
 Ca  Si  O  
  27  27  81
Direct
  0.5238854717520746  0.2039100407725005  0.6370517846255993
  0.6052910946375410  0.2499779430727758  0.1149408837372450
  0.1314666886651795  0.1571785671427008  0.9688938789912780
  0.5208397025886582  0.7963009410308949  0.4278702524932391
  0.2150701965198430  0.5787747389033681  0.2520772718438459
  0.9845350644068365  0.3921467024233897  0.1863268674778898
  0.0247184220226916  0.5292298218339798  0.4381444041260175
  0.5022123804191999  0.5365873893439645  0.3154561781061208
  0.9327128538250166  0.1360721483714293  0.7760049003965369
  0.0146815050692824  0.7605088546143041  0.5423112081201795
  0.1882447295651179  0.9240377374583375  0.7097894421615999
  0.2621404348525285  0.4645087322938112  0.5540619839083522
  0.0967328007919465  0.3680696318369772  0.7498149551279906
  0.8685942279847904  0.9178615980864676  0.0317867986549372
  0.3707913933700915  0.3833826411998822  0.0457580778293348
  0.4189246709946720  0.9631058043450373  0.9283071373566169
  0.6648703377685591  0.1098468475149858  0.9099388400556456
  0.6014907426155403  0.4809696801556960  0.8386272886700754
  0.7535673478820764  0.5307903220913935  0.1234607599876401
  0.8942489811473979  0.5729790884077159  0.7200009398145690
  0.4089941189670019  0.6787533064112687  0.7175215733078959
  0.3722312938999585  0.1478893889621827  0.7981760782505989
  0.3180030675983280  0.0041748727853379  0.3658010123067272
  0.0291178069323161  0.7708281592839615  0.2277269571773110
  0.1991839784155466  0.5415184624682758  0.9978032394719889
  0.7379463020461305  0.9797685942717348  0.6286844455453444
  0.6484798418958521  0.8080081042861010  0.8518529922080056
  0.6027844141487835  0.5010517875721419  0.5723919215900775
  0.7165217521651746  0.7410625904313433  0.6137769999022272
  0.7768131280640419  0.6064487019665801  0.3764100427919150
  0.2187252958797681  0.1922979853641585  0.5775572545939827
  0.4500767917815128  0.2958446834295104  0.3788182323663927
  0.3923636416214220  0.4083315463828983  0.7969170354134634
  0.7359120008586210  0.3492871591947262  0.3579923421833081
  0.8576459153978695  0.1680344738545155  0.1513373485218288
  0.9988989148410792  0.2740742334186280  0.4515910701008507
  0.6059908010635837  0.9653482421294751  0.1518867822502757
  0.3687263483625646  0.1009039884502780  0.1381525652889650
  0.9304797467587738  0.8693654874559382  0.8026330094097925
  0.8487626673061912  0.3391442621979597  0.9426885257604491
  0.6426996003368682  0.0922295512304851  0.3872227608285759
  0.2905200929167651  0.7434799967208801  0.4637193979665108
  0.9576774017972872  0.6403206930037433  0.9762447154443192
  0.0016465131874409  0.0091305394066460  0.5033671337722998
  0.8141816634844348  0.2709615785179756  0.6289398661608446
  0.3806848232484518  0.7951642274560593  0.1483832281357705
  0.1739203739095506  0.6583075299658778  0.7671079154141827
  0.6730462353777787  0.7704488640303200  0.1000795323876668
  0.0782554970053963  0.0265606630041980  0.2356642530439171
  0.4759622512387876  0.6001730758581670  0.0329996975048589
  0.2106971521809123  0.2897824253952591  0.2851633466990122
  0.1427602426972419  0.8694102273532480  0.9610420357828774
  0.4739385279832667  0.9609017846429921  0.6290097988024037
  0.8196462089237897  0.9208006232880779  0.3394269276141542
  0.3455656330332657  0.1570066825685841  0.9939869864485027
  0.8729311109187869  0.3396216605603420  0.7540865883184695
  0.3699545655312772  0.6110120769767609  0.4445066424117102
  0.3050687901791081  0.2985085839864497  0.6423778493840244
  0.4531058287923765  0.7640217033947305  0.9947252600379618
  0.8000544319177507  0.3150149323792008  0.1258077328013288
  0.7879885007940547  0.0421849379546069  0.4281154011338844
  0.8876798612736571  0.2440154660395723  0.3477571445450992
  0.8198027634864861  0.6335897305756972  0.5304130584320959
  0.8431832417837972  0.4917107233490297  0.9510907459027280
  0.8399388021812705  0.1442485926110695  0.9890035274216942
  0.0841744043786075  0.5656704097296770  0.6390613081572004
  0.2496916938656956  0.7171544988006622  0.8882606838655052
  0.4860018896516702  0.3909839211058779  0.4939364202114430
  0.8573900767708712  0.7362375421721351  0.9039655580585675
  0.1629800766200265  0.6735535834357708  0.4001219866682609
  0.3939849152940964  0.9113752318223317  0.7466503644910695
  0.5542513908618861  0.4568083680725978  0.0920713421607404
  0.0178997083603934  0.9724682232068254  0.8929680087839788
  0.5549246612274290  0.0124179513706840  0.2807254413964888
  0.6987740333701151  0.2489920809806874  0.4890972267939185
  0.2798110017818116  0.2242679656219042  0.4090382820279321
  0.9235091263539326  0.9741228959007580  0.2238084443153617
  0.0141065093043771  0.5813287550531440  0.1141100853976151
  0.0261027543061155  0.7815854815404617  0.9952120748644874
  0.9682398507960478  0.9487255549981776  0.6451106195276406
  0.9076810381562853  0.3824019092489067  0.5429454465402908
  0.5901132228379667  0.3264387510713262  0.2926608389296474
  0.1399584295262805  0.1614449279317435  0.7461173725482139
  0.3620208300702981  0.9403678214129069  0.1456260876295003
  0.1196026785315440  0.3196288020090868  0.5428653783378855
  0.3520306164015382  0.7891998474474347  0.3060295589142965
  0.1812890854696603  0.3417157315457626  0.1324005117361069
  0.7262167990482286  0.7957646819725308  0.4192603917163923
  0.6723302800945286  0.4903595192076182  0.4349426718520711
  0.2528024243544396  0.7298680525074941  0.6195672971224238
  0.7223173617366242  0.0991625963966304  0.1840485645017938
  0.3726368244906299  0.6057816267458037  0.1499757340427821
  0.2244470012132340  0.7665936063442039  0.1077128656881633
  0.8754249480286255  0.4748280359890829  0.3272956765911648
  0.3230169537697767  0.4267603033469102  0.3096240602484006
  0.2688934924524404  0.5274302647957949  0.7488056395702639
  0.5917768043410531  0.8384070336372459  0.6356900483483304
  0.6939534263612759  0.3300239596882807  0.9145752238432815
  0.5427968527093876  0.8051247681547701  0.1918286958402075
  0.5608434740852198  0.0291221000760470  0.7475381098330162
  0.4926213394739203  0.2939895610680398  0.8254432294058432
  0.7229997387116334  0.8776098493073519  0.2333779425655105
  0.0098850150827951  0.1681271915330701  0.1743482033187153
  0.0544454422252234  0.1255796193472126  0.3897634512784735
  0.0761738211814375  0.3760747693132661  0.3408754358679700
  0.9081261658361387  0.7243808136234067  0.3533013840227211
  0.6670014549011989  0.6215815064752237  0.2680004951711589
  0.5845090313522937  0.6572066640437566  0.5477958989854617
  0.2275639862842769  0.9841783164400613  0.9193367928179279
  0.4993136645827742  0.1567685875065743  0.4172594213431364
  0.0626450427428401  0.7670608642738111  0.7568246620438668
  0.6877587366329947  0.4044984598707388  0.6437495448583139
  0.8103822351801500  0.9633880439546476  0.8377758343263713
  0.3700118652612450  0.0712565784888366  0.5862632911445047
  0.0472824312976009  0.5781054342879353  0.8717957985106979
  0.6857289955709187  0.6065838102983376  0.7210325249592157
  0.0015724452526468  0.3101937923813417  0.9506493988396872
  0.4785192607016686  0.4810830723516546  0.6920821788895913
  0.5256454697021227  0.0842870462975183  0.0802039655242474
  0.1781742888690712  0.0436725512327876  0.5333793420758012
  0.2291702261588070  0.1249464478795265  0.2237466448718785
  0.6548732946298923  0.6573392272798660  0.9867048071660391
  0.2594768772793825  0.3645165496934569  0.8950323629519902
  0.3532722294259050  0.8690698860941761  0.5212418423168277
  0.4071548099122967  0.5348903727673464  0.9152650373305364
  0.9175842635348560  0.9000628887093427  0.4537660764920176
  0.9353864290583298  0.1702030570946442  0.5817681630884898
  0.7513677119416392  0.1496298105275970  0.7037089017270256
  0.4102215839098952  0.2409358700995420  0.2243374666105643
  0.1283034592451880  0.9767469966962740  0.1119987093208055
  0.8394642792313144  0.7909575848224815  0.7040315900389864
  0.5792417659035464  0.9892834645577147  0.5057859587675271
  0.1123752392676135  0.9147733573958291  0.3602102127791652
  0.8177584923837121  0.7298705186778942  0.1206470105909176
  0.6508825914745401  0.9066246831508166  0.0131793909819772
