Sc  F  C 
 1.0000000000000000
    13.1286234000000004    0.0000000000000000    0.0000000000000000
    -6.5643117000000002   11.3697213799999997    0.0000000000000000
     0.0000000000000000    0.0000000000000000   26.8280942399999986
 Sc  F   C  
  32  32  16
Cartesian
  0.0760433100000000  1.7438096800000000 12.3203630200000003
 -1.4875039299999999  4.6954826799999996 12.1727906499999996
 -3.3806460299999999  7.4721459899999996 12.1512404800000002
 -5.0160582700000003 10.4742258800000005 12.2431698799999999
  3.2043326400000001  1.8406257300000000 12.2998583000000004
  1.6660698500000000  4.8263739899999996 12.1032256300000007
  0.0193321100000000  7.5452946599999997 11.9587996200000006
 -1.7111353000000000 10.3805265999999996 12.0389910499999999
  6.5560421099999999  1.8249541300000001 12.0951790199999998
  5.1257011600000002  4.7020093699999999 12.0739636800000003
  3.2210831799999999  7.5759662499999996 11.9218569999999993
  1.6529155400000000 10.4271448699999993 12.1180522300000000
  9.7328885599999992  2.0176731000000001 12.2000315100000005
  8.2494952200000000  4.7007528000000001 12.0426673500000003
  6.4833590799999996  7.6962630100000000 12.1442673899999996
  4.8764833300000001 10.5559918100000001 12.2309172999999998
  1.7224369200000000  0.8931659300000000 14.8689623500000003
  0.0687301400000000  3.8656983899999999 14.8487779199999999
 -1.6723394600000001  6.5912570800000001 14.6078633000000000
 -3.3191639999999998  9.3857573900000002 14.6554741699999997
  5.0114778600000003  0.9392392200000000 14.6628328099999994
  3.2889066499999999  3.9088278299999999 14.6412251900000001
  1.5967777999999999  6.6827374800000001 14.6039069999999995
 -0.0650481500000000  9.4938736699999993 14.6032639199999998
  8.2894355799999992  0.9354721400000000 14.8307038799999997
  6.6389870300000000  3.7349708100000001 14.7238728600000002
  4.8434189099999996  6.5309001799999997 14.6803793299999992
  3.2151622400000002  9.4882005800000009 14.6141790399999998
 11.4835123200000009  0.9964607300000000 14.7815710500000002
  9.8659052500000008  3.8616296700000001 14.6528202000000007
  8.0772855200000002  6.7538050399999996 14.7294324499999991
  6.4228627100000004  9.3606575299999992 14.6126928700000001
 -0.2630242600000000  2.0279984899999999 16.0735658000000008
 -1.7255858799999999  4.6152204899999996 15.8220982699999997
 -3.3162310200000000  7.6840934499999998 15.7455305699999997
 -4.8342795100000000 10.3438966699999995 15.9984856799999999
  3.3242553600000000  1.9268641099999999 15.9045742600000004
  1.6467578300000001  4.8486590899999999 15.9099404599999996
  0.0155974000000000  7.6585321000000004 15.8336460100000007
 -1.6256410600000000 10.4461889400000008 15.7878519599999994
  6.7429801600000001  1.9555916600000001 15.9205637600000003
  4.9136917699999998  4.5372603399999996 15.7820765099999996
  3.2945928200000001  7.5804479400000000 15.8390408600000008
  1.7333420399999999 10.3116836900000006 15.9495210600000004
  9.7971300899999996  1.9165585800000000 15.8027353999999995
  8.3848615199999994  4.9137363199999999 16.0174333699999991
  6.5112277299999999  7.7197730699999996 15.9254077699999996
  4.6213758699999996 10.3252892200000002 15.8728329200000005
  1.5646222400000001  0.8865558600000000 11.0242289200000005
  0.2895488900000000  3.7623851899999998 11.0439056099999995
 -1.5188941300000001  6.5532633999999996 10.8964973999999994
 -3.3805846800000001  9.3460195499999994 11.0817722599999993
  4.7967240100000001  0.8291944000000000 10.8250443300000008
  3.5523697400000001  3.6917650399999999 11.0946727700000007
  1.7346077700000000  6.5979509299999997 10.7837726400000005
 -0.0368568400000000  9.3799385999999991 10.9964603200000006
  8.2072447799999999  1.0835773399999999 10.9774645399999997
  6.9063308000000001  3.8015927199999999 10.8358368400000007
  5.1020395100000000  6.7439810500000004 10.7875193899999999
  3.3598536499999998  9.5881040599999992 11.0345425600000002
 11.6252832599999998  0.8862126500000000 11.0084820000000008
  9.9375335099999997  4.0171102500000000 11.0053167900000002
  7.9955670899999998  6.7625574500000001 10.8969466100000005
  6.6549166599999996  9.4311119300000001 10.9939092899999995
  6.4672702700000002 11.2310538999999991 13.5599545199999998
 11.4742306099999993  2.7412157300000000 13.5242826399999991
 -3.2415617000000001  5.7250351100000003 13.4213187699999992
  8.1021495500000000  8.5479364100000002 13.5342929200000004
 -3.2341350000000002 11.3655156300000009 13.3972053199999994
  1.5415222000000000  2.8273403300000002 13.5047549399999998
 -0.0431685300000000  5.5590816399999996 13.3803609100000003
 -1.6733859200000001  8.6054728199999992 13.3973359599999995
  0.0305551700000000 11.2260093600000008 13.3569478000000004
  5.0020800200000002  2.8204910100000000 13.3770620499999993
  3.2388203099999999  5.8278403900000004 13.4235705400000001
  1.5732119800000000  8.5780558399999993 13.2380562000000008
  9.7319711899999994  0.0695989600000000 13.2971215600000008
  8.2318067599999996  2.8135047300000000 13.3870608000000004
  6.6025394100000003  5.6767304400000000 13.2552834599999994
  4.8148397699999999  8.3562770200000003 13.2792268900000003
