Global Parameters
ISTART =  0  
LREAL  =  Auto 
ENCUT  =  600 
PREC   =  A
LWAVE  =  F 
LCHARG =  F 
ADDGRID= .TRUE.        (Increase grid, helps GGA convergence)
NPAR = 4
 
Electronic Relaxation
ISMEAR =  0
SIGMA  =  0.05
EDIFF  =  1E-06
 
Molecular Dynamics
IBRION =  -1    
NSW    =  1          (Max ionic steps)
EDIFFG = -1E-02        (Ionic convergence, eV/A)
POTIM  =  1            (Timestep in fs)
ISYM   =  0          (Switch symmetry off)
ISIF = 2
LSCALAPACK = .False
KSPACING = 0.3
KGAMMA = TRUE
