Sc  F  C 
 1.0000000000000000
    13.1286234000000004    0.0000000000000000    0.0000000000000000
    -6.5643117000000002   11.3697213799999997    0.0000000000000000
     0.0000000000000000    0.0000000000000000   26.8280942399999986
 Sc  F   C  
  32  32  16
Cartesian
  0.0035410500000000  1.8722697699999999 12.1375044200000008
 -1.7697340600000000  4.7805880399999996 12.1079875799999996
 -3.2979400000000001  7.6275548400000002 12.2538039100000002
 -4.9545065499999996 10.3751438300000007 12.1553577900000001
  3.3788551299999998  1.9480509800000001 12.0507833899999994
  1.5837719400000001  4.7441243000000002 11.8936670400000004
 -0.0303177800000000  7.5523582200000003 12.1095388699999997
 -1.5948580000000001 10.4462264099999995 12.2959874399999993
  6.6280199099999999  1.9300746799999999 12.2534300999999992
  4.9810061399999999  4.8306244600000001 12.1799370899999992
  3.3131959800000002  7.6467915700000004 12.1428832900000003
  1.6305780700000001 10.4603960899999997 12.2911773899999996
  9.7609072500000007  1.9092757499999999 12.1238751800000006
  8.2933201099999998  4.7621645199999998 12.2258136499999992
  6.6712118900000004  7.5207107300000002 12.0788538600000006
  4.8249823300000001 10.3407975499999996 12.1174774400000000
  1.5920798199999999  0.9633779700000000 14.5828909000000007
 -0.0661786000000000  3.8426951499999999 14.4036429899999998
 -1.6808795000000001  6.7184805799999996 14.7629550700000003
 -3.3580879499999998  9.5962621699999993 14.6748370099999992
  4.8834617400000004  1.1100880000000000 14.7484152999999996
  3.2751007799999998  3.8394669000000001 14.7396394300000004
  1.6554301600000001  6.4198529300000002 14.5174565199999996
  0.1283089400000000  9.4684398699999992 14.6661099299999993
  8.2676721799999999  0.7524904400000000 14.7656955500000002
  6.5705745100000001  3.7215200899999998 14.7228578700000003
  4.8048040399999996  6.6506682100000001 14.6246570600000005
  3.2798210900000000  9.3090018600000004 14.7285893100000003
 11.5556678500000007  0.9754402400000000 14.6179875999999993
  9.9164321399999995  3.7726845800000000 14.6009191499999993
  8.2414744300000002  6.7029221000000003 14.7305692199999996
  6.5409958599999998  9.3660442600000007 14.7383872300000007
 -0.1317770200000000  1.7443967400000000 15.9040686699999991
 -1.4743596200000000  4.5888487099999997 15.8370392500000001
 -3.0897402700000001  7.6669055300000002 16.0478395499999991
 -5.0238061800000002 10.1519411599999998 15.7835189299999996
  3.2829158700000001  2.0216145800000000 15.8177468700000006
  1.5892268400000000  4.8986422799999998 15.8683550499999999
  0.0747103000000000  7.3548193199999998 15.7296885399999997
 -1.4443912200000000 10.5415101799999995 15.7166666900000003
  6.6044705700000002  1.9508433999999999 15.8990583799999996
  4.9345312400000001  4.6191465599999999 15.8941749199999993
  3.3141858599999998  7.3679646600000002 15.8236469799999995
  1.7982083400000000 10.4611021799999993 16.0716329900000012
  9.7527667600000001  1.9365726999999999 15.7875391199999999
  8.1670231300000005  4.8553852099999997 15.7149723899999998
  6.3001049699999996  7.5291678500000003 15.9254282600000003
  4.9971605300000004 10.3380818699999999 15.8031219699999994
  1.5433042100000001  0.8168425600000000 11.0535227700000007
  0.0106464900000000  3.8614775699999999 10.9629533299999995
 -1.7640219300000000  6.8512995099999996 10.9689690100000004
 -3.4987464099999999  9.4082117899999993 11.0183699799999992
  5.0273576300000000  0.8833739300000000 11.1106916600000005
  3.3939544300000000  3.8370097900000002 11.0690750799999993
  1.8914465800000000  6.5701290099999996 10.8777494800000003
 -0.1156602600000000  9.5310904700000005 10.9512202100000007
  8.1377869399999998  1.1898952300000001 10.9472594099999991
  6.5965722500000004  3.6128816399999999 11.1992785500000007
  5.1591992800000002  6.6345803900000000 10.9983878300000004
  3.3193373099999999  9.4352456799999995 10.8479416099999995
 11.3428242699999995  0.9125787200000000 11.2291758399999999
  9.8008783800000003  3.9384599699999998 10.8697064399999999
  8.2920219100000008  6.6373428499999996 11.0042267099999993
  6.5931405999999999  9.5025950800000007 11.0163394100000005
  0.0095642300000000  0.0309203400000000 13.3741301400000001
 11.3823662100000007  2.8923906599999998 13.3836751899999999
 -3.3227094300000002  5.7747371699999999 13.3906135299999995
  8.1425889700000003  8.5123410600000007 13.4478217000000004
  3.2964171200000001  0.0069575800000000 13.4968895599999996
  1.6277676200000000  2.8085134200000001 13.3635005699999994
  0.0164524000000000  5.6360380399999999 13.2547011999999995
 -1.5699984899999999  8.5420019400000005 13.3677876199999996
  6.5440348699999999  0.0779887500000000 13.5570440300000001
  4.8773719099999999  2.9115744299999999 13.4264886200000007
  3.2089221299999999  5.6207286900000000 13.3950625500000005
  1.5712474299999999  8.4787479900000005 13.4240146100000004
  3.2489608099999998 11.3000005500000000 13.4375796500000000
  8.2284012999999998  2.9353298300000001 13.3704457800000007
  6.4834713800000001  5.8438780399999999 13.4338557499999993
  4.7777460899999999  8.4823630800000007 13.4808074900000001
