Sc Cl  C 
 1.0000000000000000
    13.7939866799999997    0.0000000000000000    0.0000000000000000
    -6.8969933399999999   11.9459428800000005    0.0000000000000000
     0.0000000000000000    0.0000000000000000   27.8102210700000008
 Sc  Cl  C  
  32  32  16
Cartesian
  0.0759269000000000  1.9945592800000000 15.0986526500000000
 -1.6410191900000000  5.0956953499999997 15.2876930499999997
 -3.3704484300000002  7.9287199299999997 15.1643275600000003
 -5.0432674600000000 10.9381201699999995 15.2314687600000003
  3.5618121000000000  1.9990991100000000 15.2312504200000003
  1.7837252100000001  5.0268010199999997 15.2108851000000005
  0.1297443900000000  7.9609861100000003 15.1704105800000004
 -1.7719964500000001 10.8959870300000006 15.1197178099999991
  6.8182366800000000  1.9836710000000000 15.1489276999999998
  5.1300965400000003  4.9351021499999996 15.2413723999999995
  3.5506692200000001  8.0101682200000006 15.2448128399999998
  1.6832062000000001 10.9579577799999992 15.1671251199999997
 10.2666943600000007  2.0242000500000001 15.2223156199999998
  8.6116842100000000  5.0448379699999997 15.0953599100000009
  6.9719618600000004  7.9631802599999997 15.2453998199999994
  5.2367816500000002 10.9650034800000000 15.0519552900000004
  1.8154468100000001  0.9317684200000000 12.7891764099999996
  0.0400821200000000  3.8161908200000001 12.6520575399999995
 -1.7056629299999999  6.9021788300000004 12.6451495400000002
 -3.5099914000000001 10.0444501899999992 12.7233173100000005
  5.1964639300000002  1.0917420200000001 12.7018574999999991
  3.3274950699999999  4.0574191900000001 12.6056229799999997
  1.7096107400000000  7.0364744999999997 12.6993153999999997
 -0.0783130600000000  9.9999967299999994 12.5847581300000009
  8.6478520600000000  1.0269426500000001 12.6579327300000006
  6.7028049200000002  3.9892616699999999 12.5357770599999991
  5.1925292199999999  6.9474564900000004 12.7527325400000002
  3.4642191200000001  9.8432815999999992 12.7545887699999998
 12.0203076299999996  0.9324956900000000 12.5623940300000001
 10.4032285499999997  4.0503778099999996 12.6365227099999995
  8.6527617899999996  6.9566291500000004 12.5520972099999994
  7.0817073199999996  9.8808782799999992 12.5003811000000002
 -0.0189008300000000  1.9140109300000001 10.8669234299999999
 -1.6643691899999999  4.6849194499999998 10.8912614100000003
 -3.2832157799999999  7.9758493100000001 10.8534596800000003
 -5.2876953000000002 10.8587341599999991 10.6795895800000000
  3.2904335200000001  1.8397182299999999 10.8703953500000008
  1.6902430600000000  5.1086340999999997 11.1960161899999999
  0.0050025800000000  7.8111803499999999 10.9132339799999993
 -1.8351166100000000 10.9438708400000007 11.1950356699999993
  7.0253866499999997  2.1824883599999998 10.9945729799999992
  5.0769166700000001  5.0066754700000002 10.7620626599999998
  3.4310260100000001  8.0748152599999994 11.0297803099999996
  1.4691729899999999 11.0752722699999993 10.9161794000000008
 10.1005601400000007  2.0506533199999999 10.7763136500000005
  8.6142223900000001  5.1761065799999999 10.9719377700000003
  6.9057403300000004  7.8790329999999997 10.9141044699999998
  4.9591800399999997 10.9260692000000006 10.6623780600000000
  1.6660566400000001  0.8570717400000000 16.8013310999999987
 -0.0551980500000000  4.0740823300000004 16.6900970499999985
 -1.6583022400000000  7.1961155100000003 16.8478213900000000
 -3.4231693200000000  9.8752464799999995 16.8027273500000014
  5.0612998700000000  0.7069101800000001 16.7494681000000014
  3.5902866100000002  3.9511492800000001 16.8516923399999996
  1.8583943100000000  6.7862744499999996 16.9699764600000016
  0.1036197100000000  9.7849311900000000 16.6852138100000005
  8.4167472300000004  0.9438610900000000 16.8104864800000016
  6.9556308400000004  4.0023470999999997 16.8922594299999993
  5.2405739699999998  7.1453320500000004 16.9180604800000012
  3.2035656900000000  9.9567540099999992 17.0688635899999994
 12.1362835499999999  1.0162868000000000 16.8669051600000017
 10.4352769300000006  3.8815860299999998 17.0328115900000014
  8.5569341399999992  7.0784977600000003 17.0566698800000012
  6.9623417700000001 10.1354606100000009 16.8641739599999987
 -6.7974457900000003 11.8374584400000007 13.8647812699999999
 -1.6017893599999999  2.9862211200000002 13.8253934899999997
 10.2135653400000006  6.0004465500000004 13.8514027300000002
 -5.0723543700000002  9.0236669500000009 13.9253787700000000
 -3.4955637600000000 11.8762662999999993 13.9662013799999993
  1.8395119799999999  3.1003659699999999 13.9422850399999998
  0.0278326800000000  5.9997613599999999 14.0694407800000008
 -1.7620510000000000  8.9399502799999997 13.9968907399999996
  6.7912506700000002  0.0396045200000000 13.8201834199999993
  5.2006755000000000  3.1413171400000000 13.9696634700000004
  3.3826660099999999  6.1907879100000001 13.9836460200000001
  1.7321007200000000  9.0168375600000008 13.8325450100000005
 10.4340606200000003  0.0308446700000000 13.9893490000000007
  8.6184929700000001  2.9812157899999998 13.9372611299999996
  6.8086974700000003  5.8281125300000003 13.9670110100000002
  5.2363185100000003  8.9073535800000005 13.9937399899999999
