Sc  F  C 
 1.0000000000000000
    13.1286234000000004    0.0000000000000000    0.0000000000000000
    -6.5643117000000002   11.3697213799999997    0.0000000000000000
     0.0000000000000000    0.0000000000000000   26.8280942399999986
 Sc  F   C  
  32  32  16
Cartesian
 -0.0551279000000000  1.9093266400000000 12.2580502899999999
 -1.5870751800000000  4.7366798000000001 12.1041662399999996
 -3.2075394400000001  7.5567511500000002 12.0545549199999993
 -4.9062865599999999 10.3685391899999999 12.1487605700000003
  3.4126875800000001  1.8334238500000000 12.2062062699999991
  1.6570334300000000  4.6793042199999997 12.0859351600000000
  0.0866959300000000  7.5873374599999996 12.1766578600000006
 -1.6064713600000000 10.3849803999999999 12.0877239599999999
  6.6584071600000003  1.8836471100000001 12.1698074999999992
  4.8329915699999999  4.7947762000000003 12.1297479999999993
  3.2497044499999999  7.5553267799999997 12.2127508700000007
  1.5870454199999999 10.3987946800000000 12.1315758000000002
  9.8106040100000005  1.9074872700000001 12.1802860299999995
  8.1005616600000003  4.7528083600000004 11.9988917900000001
  6.4959049699999998  7.7227146099999997 12.1287979700000008
  4.8547224000000000 10.4562377800000004 12.1645503399999999
  1.6817970200000001  0.9344318500000000 14.7866903300000008
  0.0098568000000000  3.6994864900000000 14.7466609700000006
 -1.6428533299999999  6.6439410399999996 14.5854563299999995
 -3.2302581799999999  9.5284899299999992 14.6894313899999993
  4.9569598499999996  0.9772809800000000 14.7853001299999995
  3.2459320300000001  3.7480058199999999 14.6666458800000008
  1.5877757800000001  6.5552068200000004 14.6710466900000007
 -0.0277264200000000  9.4661855399999997 14.7663243000000008
  8.2452670900000005  0.9427897100000000 14.7183557999999994
  6.5267964200000002  3.8449146900000000 14.6355213899999992
  4.9314065899999999  6.7057968399999996 14.6762889199999993
  3.1707115899999998  9.5024759099999994 14.6946205299999999
 11.4382483599999993  0.9114981200000000 14.7109709800000008
  9.7831076800000005  3.8282629600000000 14.6101991200000008
  8.2116618599999995  6.5677934499999999 14.5652527400000000
  6.6112111499999999  9.5151241899999999 14.6900924899999996
  0.1656993200000000  2.0173067400000000 15.9356712500000004
 -1.6687537400000001  5.0348808099999998 15.7420328499999993
 -3.1297819300000000  7.7250395899999997 15.7512201800000007
 -4.9608308599999997 10.3897951800000001 16.0051616599999988
  3.4868452200000002  1.9197338200000000 15.9188909800000005
  1.6216343400000000  4.6951178200000001 15.7249889500000002
 -0.0150124200000000  7.5900482800000004 15.8654942099999996
 -1.6086770100000001 10.3721166599999997 15.9468123300000002
  6.7602376499999997  1.9510872300000000 15.8452634099999994
  4.9826772899999998  4.7026421100000002 15.7459915899999991
  3.1906476000000001  7.6538246000000001 15.8167139500000005
  1.6083492200000000 10.3636398399999994 15.7886339699999994
  9.9100407500000003  1.9963555900000001 15.8663040899999999
  8.2003778399999998  4.8277265399999996 15.8669707899999999
  6.4424528099999998  7.5910649399999999 15.7111818799999998
  4.8455141599999996 10.3475520200000002 15.8186727499999993
  1.8025511299999999  0.9767156400000000 10.9802608300000006
 -0.0029986500000000  3.8245704300000001 11.0270507000000002
 -1.6301739099999999  6.4895752800000004 10.7387096300000007
 -3.1790474500000001  9.3975801499999996 10.8874294500000008
  5.0252079099999998  0.9767088000000000 11.0057345499999997
  3.2307262500000000  3.5924106299999998 11.1057987199999992
  1.7244122700000000  6.5915742100000001 10.9622008100000006
  0.0382801100000000  9.5104133700000002 11.0456219099999995
  8.2012309600000002  0.8804916699999999 10.9745536700000006
  6.5008012600000002  3.7441542999999999 11.0926323799999995
  4.7381307499999998  6.6066289500000002 10.9555941899999993
  3.3497676500000000  9.4259449100000001 11.0734706599999999
 11.4772631300000008  0.9123308400000000 11.0224456600000007
  9.8193744299999999  3.7982440500000001 11.0611342399999995
  8.0577829600000008  6.5513264700000002 10.9967999299999999
  6.4305666400000003  9.4753166499999999 10.9708753500000000
  0.0771446900000000  0.0317540800000000 13.5103036099999994
 11.4735586499999993  2.8298977100000000 13.4114413700000004
  9.8153348099999995  5.7250530499999996 13.3256237599999992
  8.0809449499999992  8.5702516200000005 13.4269563999999999
  3.3403293100000000  0.0282830900000000 13.4702646000000001
  1.5304669300000000  2.7632818900000000 13.4872227200000001
  0.0322111900000000  5.7042730500000003 13.3591601200000003
 -1.6039165600000000  8.5101885399999997 13.3257928999999997
  6.5616758800000001  0.0607048600000000 13.4189014100000001
  4.9232582999999996  2.8629435499999998 13.4443249399999996
  3.2335792600000000  5.5705361199999999 13.4353399099999997
  1.6867182400000000  8.5014014299999996 13.4102620800000008
  9.8396950200000006  0.1106052300000000 13.4973839899999994
  8.2146700199999998  2.8463249099999999 13.4070647699999999
  6.5467068700000004  5.6247797200000003 13.3424631199999997
  4.9519088499999997  8.5109930100000000 13.3965337099999999
