Sc  F  C 
 1.0000000000000000
    13.1286234000000004    0.0000000000000000    0.0000000000000000
    -6.5643117000000002   11.3697213799999997    0.0000000000000000
     0.0000000000000000    0.0000000000000000   26.8280942399999986
 Sc  F   C  
  32  32  16
Cartesian
 -0.0451386700000000  1.9454715400000000 12.2189856199999998
 -1.6756032500000000  4.6661247399999999 12.0014031400000007
 -3.3187719300000000  7.5480468500000004 12.0560555600000008
 -4.8905954400000002 10.4267831199999996 12.0206850099999993
  3.2593350499999998  1.9681276299999999 12.1317537000000009
  1.7647236900000001  4.8020299099999999 12.2388839699999998
 -0.1175157200000000  7.4565858100000000 12.0410204400000005
 -1.5673616699999999 10.4648858300000001 12.1497768399999995
  6.5763100300000001  1.9899528600000000 12.1374429999999993
  4.9077667900000002  4.7592181000000000 12.3023393100000007
  3.2514059400000002  7.6567469600000004 12.2585452799999999
  1.7406023500000001 10.3398337799999993 12.1567460300000008
  9.9467762499999992  1.7324826900000001 12.0105789299999994
  8.2448261200000008  4.6363947200000002 12.2118071100000005
  6.5905115199999997  7.5151632199999998 12.1128260700000006
  5.0286941799999996 10.3999540800000005 12.2917194500000004
  1.8462658999999999  0.9530989800000000 14.7110009099999992
  0.0924412300000000  3.8124435499999998 14.7726273799999994
 -1.7054354899999999  6.6623693299999998 14.5936325500000006
 -3.3705924800000000  9.4070623900000001 14.4775831900000007
  4.9375593200000001  0.9319311300000001 14.6932104599999995
  3.2193329700000000  3.9446384499999998 14.8237631200000006
  1.4658346000000000  6.8288970600000001 14.6738535500000005
 -0.0399925900000000  9.5636834000000004 14.6868164900000000
  8.1329162299999993  0.9267601300000000 14.8009277299999997
  6.5120104699999999  3.7421871599999998 14.7554931400000005
  5.0348804700000001  6.7099914399999996 14.6858129599999998
  3.2411599799999999  9.4723089700000003 14.7817923300000000
 11.5099193799999995  0.9871134499999999 14.6969796800000001
  9.8835756400000001  3.7686761099999999 14.5471111999999998
  8.2338827000000006  6.7229877800000004 14.7147446300000002
  6.4689349399999996  9.5027565799999998 14.6835312200000008
  0.0373334300000000  1.7104732000000000 15.8199385600000006
 -1.6818214600000001  4.7014058199999997 15.7136536299999996
 -3.2426925899999999  7.6466193699999998 15.7657331400000000
 -5.0129137600000000 10.2583382099999998 15.6033312399999993
  3.5883950499999999  1.9419889600000000 15.7373599300000002
  1.3858704600000000  4.6819042700000004 15.8825000200000002
 -0.2151881600000000  7.5046037400000003 15.8742771299999994
 -1.5424785700000001 10.4518090499999996 15.9402576899999993
  6.6343757400000003  1.9307221800000001 15.9741956399999996
  4.7752798800000003  4.7992879700000000 15.9628803700000006
  3.2854341200000001  7.6022880600000002 15.8567926900000007
  1.3960416600000001 10.3583636099999996 15.8838934900000002
  9.9595941600000000  1.9522464700000000 15.8249880300000001
  8.4585287499999993  4.7852226299999998 15.9299192400000003
  6.5357006000000002  7.5688133999999998 15.9249415899999995
  4.8875036500000002 10.5722380200000003 15.8905820299999991
  1.5553301799999999  1.1783795600000000 10.9951264399999999
 -0.0900141200000000  3.7380914100000000 10.9726266700000004
 -1.7186852300000000  6.6222699100000000 10.7621471199999998
 -3.4988270500000000  9.3051359100000006 10.7726754099999997
  5.0173647399999997  0.9634242000000000 10.8728256999999999
  3.4350385200000000  3.7520006600000002 10.9974818400000007
  1.4495752799999999  6.5644217899999999 11.0403164799999995
  0.3430066300000000  9.4297102000000006 11.0452408500000008
  8.3119000700000001  0.8280329300000000 11.0076050300000006
  6.4752997800000003  3.6631476900000002 11.0330687199999993
  4.7628470199999997  6.6500229300000004 10.9271333599999991
  3.5070592199999999  9.4380219000000007 11.1290290899999995
 11.5364792000000005  0.8412155900000000 10.7969454099999993
  9.7974318199999999  3.4654124799999999 10.8719301399999999
  7.8946383500000001  6.6193187699999996 10.6954953100000001
  6.6176029999999999  9.4801578299999996 11.1876327100000008
  0.0725444900000000  0.0712486400000000 13.3965932300000006
 11.4303179900000007  2.9225399599999999 13.2965577400000008
  9.7609250900000006  5.6293522300000003 13.2935185100000002
  8.1396714800000005  8.5583720599999999 13.3454153000000009
  3.3668144899999999  0.0626880900000000 13.4340097899999993
  1.7648217799999999  2.9279990599999999 13.4852538299999996
 -0.0018702100000000  5.7976146300000000 13.4035561800000007
 -1.6626114500000000  8.5644830400000007 13.3275091700000008
  0.0049606900000000 11.3151709700000005 13.4541383700000008
  4.8825230800000003  2.8100071000000000 13.5413253099999995
  3.2764563700000000  5.6904703000000003 13.4794452400000004
  1.6493521099999999  8.5562727200000008 13.3740541499999992
  3.2844316000000000 11.3243827400000008 13.5030235100000002
  8.2455461400000001  2.7591164400000001 13.5157740799999999
  6.5999265200000004  5.5918353800000000 13.5100117799999992
  4.9513076900000002  8.5842951999999997 13.4345974199999993
