Ca Si  O 
 1.0000000000000000
    12.0937876200000005    0.0000000000000000    0.0000000000000000
     0.0000000000000000   12.0937876200000005    0.0000000000000000
     0.0000000000000000    0.0000000000000000   12.0937876200000005
 Ca  Si  O  
  27  27  81
Direct
  0.5414761864323198  0.4355425988537411  0.2393178209292880
  0.1037861395816375  0.5086678518999824  0.1788969203016317
  0.0666601899529636  0.4086978310935478  0.4830356232103239
  0.3719450118804054  0.7760530666570445  0.1375979860311124
  0.4353055225886297  0.6839356486069994  0.5685296563856808
  0.1247195525002944  0.2883772900255379  0.7469322013776194
  0.3160978570252088  0.9471077250486726  0.8037690742910533
  0.5419233126900239  0.8408165257659783  0.8487788484911396
  0.0672653113781074  0.8845167681223097  0.8528017660028993
  0.9217079338788654  0.7510417691624719  0.3141268665672169
  0.6133559157044300  0.7449519367365903  0.3697933443617062
  0.9719642009059855  0.0004704324384357  0.1062640870156111
  0.3081588173283962  0.0226244356687322  0.3035816698094124
  0.3604864503152239  0.2992884837843712  0.9106244938341327
  0.9207425324374929  0.0279679700543642  0.4436094273003283
  0.5739660640741432  0.4000433439065139  0.5046647296754827
  0.5649007229713531  0.1712689204641416  0.7866035429849891
  0.6114984579165282  0.0558858176806647  0.4826526869338226
  0.9213917789966946  0.6722173214416014  0.9627193502840757
  0.7334906564201762  0.7800900285695608  0.0823294158360621
  0.7679594748828572  0.3666899708629082  0.7659063496932816
  0.9864253743195799  0.3204891330810388  0.0071138780259149
  0.7836414585557275  0.8194039006945948  0.6561544364213003
  0.2643150938680036  0.2544314888506369  0.1930555888164340
  0.7672322792121266  0.2341504414478878  0.2903945844221795
  0.3044173203365713  0.6437563867191509  0.8653736570247461
  0.0016943558663221  0.6805473519635035  0.5986980553574497
  0.9104446477785922  0.0760693844564140  0.7510172970938942
  0.6542944194682327  0.2741789184817849  0.0033830311301597
  0.0753253735408329  0.5076877015639208  0.8657271095686728
  0.7596105718615224  0.5158382283547989  0.1690233551496748
  0.1445888240263310  0.9097451688175090  0.5630340182871509
  0.6056390239470734  0.5855930377252647  0.0137262043303519
  0.8381189192736956  0.8759100525696184  0.8727001012111374
  0.2146200033898065  0.9764342355798704  0.0862787749203090
  0.8477886276954482  0.4870166456586080  0.3495760735047537
  0.4608711038370293  0.2253204054529279  0.3751497250122869
  0.3327909465967619  0.5429200517083332  0.3541330139548126
  0.1731265419724644  0.1494425598322190  0.9497335608081399
  0.1495570136363946  0.1793767104370566  0.4689213609656559
  0.4154621097935239  0.0710091798354236  0.0042363245998527
  0.7364651761595926  0.9445898099870883  0.2946798878877617
  0.6260277092578875  0.0935517304875575  0.1570099723646379
  0.3424805379540806  0.5488201792979726  0.0983528740022640
  0.8374566023675550  0.1967468360420902  0.6015539067321575
  0.1981645316837472  0.7651539534807871  0.3663646344072313
  0.3309667257080540  0.3274487352044305  0.5850896007383335
  0.0001082067951843  0.2543123475158232  0.2950624735710383
  0.8345111405222444  0.1710711900197897  0.9329000437664374
  0.2140383088685330  0.5528272018720963  0.6604528284249793
  0.6234004934510335  0.5800700326834415  0.7531626142447506
  0.1209605225397533  0.7284869783416950  0.0429236171752783
  0.7238102590394258  0.6005451896632529  0.5406397784914962
  0.4888991427484651  0.9319462739167896  0.6133880818059214
  0.9262447449858557  0.8189076640987019  0.7766445678661588
  0.1913433245820469  0.5097787611057784  0.7926027702146798
  0.1205998787003670  0.0561011497240101  0.5352863142142726
  0.7417143786422802  0.4313584018436732  0.2654181014963118
  0.9280763490040517  0.3550952484809717  0.3377645819779990
  0.2898176799635249  0.8502929597501895  0.2683848023453218
  0.0661182555147268  0.3174129702469506  0.2057212602183930
  0.8622654231793099  0.2008119578670094  0.8056764345593825
  0.1313500129085283  0.7201588016641556  0.9164590208009622
  0.7376459038562148  0.0059374980160268  0.1372304312054721
  0.7488811300954530  0.9421101360468574  0.4226616111189820
  0.4572802817253376  0.1001088706070729  0.3874601983460331
  0.0030024026500971  0.8836161247223887  0.5556943838575529
  0.8932651770843648  0.8443656520900604  0.9936913800376461
  0.4272868180233514  0.2753333558209120  0.2319364063712573
  0.8394569822948487  0.0028417226331282  0.8476317024988405
  0.9329979386557146  0.1384540147894543  0.0087692370109605
  0.1687948039226440  0.8479890082607553  0.0773748538838654
  0.0046827860534234  0.6062805409179163  0.8029112413005975
  0.7780945313144171  0.6392140372314559  0.2269373240407541
  0.3879166136704491  0.5812003659115026  0.2257702198676447
  0.4705711551101308  0.0224757684309326  0.8961450689010860
  0.2060580843902731  0.9135735492599960  0.6836618782958254
  0.5186143594606963  0.0899346792068108  0.0710869247098619
  0.2125500323611603  0.4683949311820311  0.3328328011435676
  0.2558736631758380  0.6464969921474444  0.0642130715703771
  0.3631208400532505  0.2916988730781102  0.7130991184050576
  0.3905634420261136  0.0181614847971011  0.6228773430370526
  0.6212911716404029  0.5703193851853007  0.8890366548375024
  0.1372420859495795  0.0209939911281491  0.9789038117737345
  0.9467830624927082  0.5693348764131844  0.3564592239796584
  0.9999755618331256  0.3989737269753708  0.8318371750933725
  0.8339391981153378  0.6963450471110555  0.5247219886270832
  0.2881572630097171  0.4357877296674406  0.1095256392471691
  0.5648062033687342  0.3215215970528181  0.9296663612156272
  0.7761614065784298  0.4660262406691743  0.4710708273542512
  0.0886582660197236  0.5187359210463793  0.6144028714140757
  0.7064068965351981  0.2246856638615256  0.6460023381822873
  0.7885855498428208  0.3123178220654085  0.9944929386811905
  0.2223006343814065  0.1840348822001225  0.3607886848272601
  0.0416041909953765  0.0650035815661198  0.7860343044456406
  0.2568682275239095  0.6921531048020835  0.6759222277462154
  0.3783003558317820  0.7961321789773583  0.9491239453401282
  0.6397241073760480  0.0698146913547337  0.2860126635827263
  0.1059170063381682  0.4784718544610923  0.9901152340560119
  0.5913860458548387  0.6197381536289952  0.5123511181685527
  0.3155410182405700  0.4671955162050381  0.5891297816589242
  0.1705944617869848  0.2899031271395850  0.9893174980362355
  0.6975044944604377  0.1609065622073492  0.9472427356881268
  0.7475965606546677  0.6097102737115868  0.0389761590670301
  0.4507664588870960  0.4839001629499427  0.3909202227250622
  0.9445154767816238  0.2650869339476626  0.6509211181269280
  0.4549286222706133  0.8424696216056091  0.7045536210598677
  0.2266444108433913  0.8635160677643849  0.4524921887126706
  0.0197129673094094  0.6959276873757436  0.1336540553537519
  0.4122741019326747  0.2817158211349506  0.4985043659961345
  0.6443137447786602  0.8674406389154037  0.2444156721515174
  0.8849567584848990  0.9356435829323750  0.2896756739969938
  0.6575075559330850  0.2246339455727932  0.1465686289271880
  0.7403726046249189  0.7907505275009948  0.8678584038174139
  0.0505711179340191  0.2333663148948203  0.4501532713371726
  0.4436170742016057  0.5228713227560383  0.0115352042208262
  0.2941512743383202  0.1424392079741185  0.0316683508950193
  0.8453439808297213  0.0730291764458817  0.6305532864980143
  0.7327214176760944  0.6306163205138210  0.6854149543929232
  0.8976927957661621  0.4928098803507846  0.1140711242289866
  0.5107694284117088  0.6435355055457803  0.7201850986366172
  0.6475300299675678  0.4566075338438926  0.0988863106891569
  0.6182261227769105  0.9931840757759230  0.6701057034107236
  0.5396191354648578  0.8537114810025083  0.4932757286174337
  0.6510604690112790  0.4563155260700700  0.6994627097643707
  0.3133319518306540  0.6700125506255583  0.3967797881669763
  0.1643973999272198  0.0518003606218446  0.1896809686161828
  0.9229410868387650  0.1526323247935455  0.2373594658841875
  0.2020209306437283  0.1580895051305689  0.8160262326485272
  0.1995913584597908  0.3110846963922457  0.5602157845732039
  0.3427768454561301  0.9817771299674932  0.0765899690902626
  0.0724023571037375  0.7263196350061256  0.4167972440382577
  0.5821141085988411  0.2587117376549399  0.4086211429600084
  0.5627949782038590  0.6941307788568558  0.0785693762662586
  0.8100624707348715  0.1896619671249031  0.4688365306352221
