Sc Cl  C 
 1.0000000000000000
    13.7939866799999997    0.0000000000000000    0.0000000000000000
    -6.8969933399999999   11.9459428800000005    0.0000000000000000
     0.0000000000000000    0.0000000000000000   27.8102210700000008
 Sc  Cl  C  
  32  32  16
Cartesian
 -0.0423415200000000  1.9045290200000000 15.2815031300000008
 -1.8073353299999999  5.0134790899999997 15.1324600799999995
 -3.3830313300000001  7.9323561400000004 15.0634573300000003
 -5.1810057499999997 11.0085323000000006 15.2337445500000008
  3.5680563900000002  2.0290256699999998 15.2380612800000002
  1.6062968799999999  4.9783486600000000 15.2000375600000002
  0.0110353900000000  8.0404977800000008 15.1101511500000001
 -1.7953040400000000 11.0247626600000004 15.2026313900000005
  6.8311283999999999  1.9192587600000000 15.1308856299999999
  5.1256772599999998  4.9297371099999996 15.1541816399999991
  3.3768056199999998  8.0785698299999993 15.2384698200000006
  1.7656059300000000 10.9192588100000005 15.0702572700000008
 10.4348044600000005  1.9515478399999999 15.1814695700000009
  8.6478079799999996  5.1677328999999999 14.9879153100000000
  6.8759268799999997  7.8788022499999997 15.1049070400000005
  5.1866454700000002 10.8748964899999994 15.1221207300000007
  1.7565147100000000  0.9963086600000000 12.7221358099999993
  0.0118307800000000  4.0016991099999997 12.5715225400000001
 -1.7144067199999999  6.9959237800000000 12.5927093699999997
 -3.5233443499999999  9.8997370300000007 12.7154243900000008
  5.2245609999999996  1.0562872100000000 12.7136167600000007
  3.3557281099999998  3.8899983800000002 12.8052407400000003
  1.7828241600000001  6.9418724599999999 12.6424278300000008
  0.0190773500000000  9.9714744000000000 12.6768615699999998
  8.6625924699999999  1.0783693999999999 12.5812868299999998
  7.0098010000000004  3.9481725000000001 12.7342592200000002
  5.1097226700000000  6.9369976600000003 12.7214158000000008
  3.5231344999999998  9.8232851399999994 12.5344102900000003
 11.9913548500000005  0.9459652100000000 12.7537335299999999
 10.3154600199999997  3.9142215299999998 12.6176010299999994
  8.6601640500000006  6.9868475400000003 12.4444129700000001
  6.8934066100000004  9.7830673600000004 12.5263282599999997
 -0.1526871400000000  2.2660287800000001 10.9745711000000004
 -1.5767969900000001  4.9364509200000004 11.0390838900000006
 -3.2751203300000000  8.1789020000000008 10.9921983900000004
 -5.1545388499999998 10.8706794900000006 11.1129973700000004
  3.4310706999999998  2.0494481800000002 11.0115390099999999
  1.7851812199999999  5.0366728700000003 11.0931894199999999
  0.2095244000000000  7.8795072700000004 10.9975819500000007
 -1.6404524000000000 11.0245643700000002 10.9514422499999995
  6.9317025799999996  1.9847393799999999 10.8717081800000006
  5.2205948600000003  4.9686313100000001 10.9510752300000007
  3.6677775100000001  7.8683106900000004 10.8455528700000006
  1.8164985899999999 11.0798940500000000 11.1141950200000004
 10.4258467800000005  2.0486383899999998 10.9277920399999999
  8.7651338600000006  4.8791376299999998 10.9486572800000008
  6.7124141599999998  7.8935694200000004 11.0680226099999999
  5.2527951000000002 11.1095670500000008 10.9039576900000004
  1.7325239400000001  0.9577592800000000 16.9552534399999999
 -0.1670259000000000  4.0705682500000000 16.8727986799999989
 -1.8452691800000001  6.9957313599999997 16.6656868399999993
 -3.3717457899999999 10.0036812899999994 16.8860151599999995
  5.1052033899999998  1.0313343900000000 16.9900298099999993
  3.2464942500000000  3.9681921099999999 17.0849349500000010
  1.6472625900000000  7.0063837900000001 16.8040431800000007
 -0.0166771200000000  9.9979286399999996 16.7976346099999994
  8.4165599800000006  0.8067705700000000 16.6560273599999995
  6.8004514499999997  3.9156560900000001 16.8090194799999999
  5.2310324599999998  6.8896169399999998 16.8426403100000002
  3.5990206300000001  9.9723905899999998 16.8085550300000008
 11.9322135399999993  1.1144052799999999 16.8366271199999993
 10.3337222299999993  3.9709561099999999 16.6944569200000004
  8.6708291499999994  6.8874469100000004 16.7844421900000000
  6.7572746900000000  9.7662726800000002 16.9198977299999989
  0.0528250400000000  0.0605568100000000 13.9388442599999998
 -1.7410283300000000  3.0390675900000002 13.8447701199999997
 10.2472837000000006  6.0789783499999999 13.7016000600000005
  8.5606650900000005  8.8831490300000002 13.8527117400000002
  3.4078638899999998  0.0082033900000000 14.0850733800000008
  1.7024515200000001  3.0263116900000000 13.9826020000000000
 -0.0933623300000000  6.0231536099999996 13.9582474800000007
 -1.7549082400000000  8.9461024899999995 13.9116437699999995
  6.8817624600000000  0.0056470500000000 13.9296552200000008
  5.1837778600000002  2.9995037999999998 13.8641715899999998
  3.3273718300000001  6.0333375399999998 14.0091346199999993
  1.7551909900000000  9.0140195300000006 13.8039325300000009
  3.6254601399999999 11.9386485400000009 13.9872829799999998
  8.7919768200000004  2.9599069899999999 13.7971124900000000
  6.7284605500000003  5.8943473199999996 13.8719451100000004
  5.1843673099999998  9.0142085600000001 13.8018037200000006
