Sc  F  C 
 1.0000000000000000
    13.1286234000000004    0.0000000000000000    0.0000000000000000
    -6.5643117000000002   11.3697213799999997    0.0000000000000000
     0.0000000000000000    0.0000000000000000   26.8280942399999986
 Sc  F   C  
  32  32  16
Cartesian
  0.0546291300000000  1.8863968300000000 12.1311340399999992
 -1.6504107900000000  4.6985411099999999 12.2040051199999997
 -3.2198814300000000  7.4931931599999997 12.1780105699999996
 -4.9602938999999999 10.4016387899999998 12.1730126599999995
  3.2682695499999999  1.8363550799999999 12.2182905500000007
  1.6683964700000000  4.7763251000000002 12.0375085599999991
  0.1439068300000000  7.7004041599999997 12.1420141000000008
 -1.6480296400000001 10.3461148800000000 12.2161776900000003
  6.5115265300000003  1.9384984500000000 12.1677785099999998
  4.9135745699999998  4.7640282300000001 12.1017104399999997
  3.4082567600000000  7.4835464800000002 12.1449246899999999
  1.5593055800000000 10.5431061600000007 12.1280260000000002
  9.7833267799999994  1.7782137200000001 12.0373052499999993
  8.2185841699999997  4.7073510399999998 12.0636616500000002
  6.7488317300000000  7.4871450900000003 12.1100782099999993
  5.0398076300000003 10.3124170999999993 12.1617953599999993
  1.6903309300000000  0.9097127600000000 14.7675880900000003
 -0.0191944600000000  3.8474217300000002 14.5370936600000000
 -1.4964073700000000  6.6518069999999998 14.8537016099999999
 -3.2602767199999998  9.4257269699999995 14.7426443900000006
  4.8129585199999996  1.0606852200000001 14.7348199999999991
  3.1192883800000000  3.8676022099999998 14.6947390599999999
  1.6139661400000000  6.6490387399999999 14.5515936499999992
  0.0307796400000000  9.5713331099999994 14.7431890800000005
  8.2161599100000000  0.9749181099999999 14.6035714399999996
  6.4552118600000004  3.8134959300000002 14.6143214399999994
  4.8924821500000002  6.7427729599999999 14.6659143299999997
  3.1446128899999999  9.4577267900000006 14.7093265500000001
 11.3813850399999996  0.9859524100000000 14.7749572300000001
  9.8015963700000004  3.7741562399999999 14.5911709900000002
  8.2563873900000004  6.7270000799999998 14.7290180799999995
  6.6897974600000003  9.6332060700000000 14.6947154900000001
  0.1027873500000000  1.6950314900000001 15.9292779699999993
 -1.5123286899999999  4.7372097100000001 15.9063698299999992
 -3.3723664300000000  7.7288637700000002 15.9100068199999995
 -4.8709649199999996 10.6215318900000000 15.9595899299999999
  3.1695524800000001  1.9497455400000001 15.8458663600000005
  1.3985521700000001  4.6947554599999997 15.8415355699999996
 -0.1925806300000000  7.8456364499999998 15.9989755299999992
 -1.4769848100000000 10.5128099800000001 15.7939563900000000
  6.6404223800000004  1.8080225500000000 15.8232435700000007
  4.7070160899999998  4.7723509999999996 15.8829090500000003
  3.2231528500000000  7.4127085800000003 15.8173752400000005
  1.6886258100000000 10.6252979599999993 15.8819289900000005
  9.6994106599999999  1.9895237800000001 16.0700057200000010
  8.1907155800000009  4.9353818299999999 15.7297655499999998
  6.5899784099999996  7.3743565499999999 15.7768587500000006
  4.9149043800000003 10.2827598899999995 15.7919273800000006
  1.6060381500000001  0.9159114600000000 10.9853433099999993
 -0.0976730600000000  3.6497243099999999 11.0076139299999998
 -1.6247113900000001  6.3640372500000000 11.0718744499999993
 -2.9756226899999998  9.1434328899999997 10.9189437900000001
  4.7723753300000000  0.8272369200000000 11.0072661499999995
  3.2903928400000000  3.7419883999999999 10.9452139400000004
  1.6105412900000000  6.5974332699999998 11.0729326399999994
 -0.0416062300000000  9.5775906800000001 11.1031186099999992
  8.1749478300000007  0.8839971000000000 10.9152588099999992
  6.5604646400000002  3.9133068099999999 10.7960796000000006
  4.9041804500000001  6.6801969100000003 10.9501947400000006
  3.4317514999999998  9.2289801800000006 10.9331596799999993
 11.7682624400000009  0.7843175100000001 10.9076608900000007
  9.6698674199999992  3.5645855200000001 10.9451341200000005
  8.2991946199999997  6.5859851899999997 10.9390521100000004
  6.5011711800000000  9.6316988699999992 10.8855123299999992
  6.5803225100000002 11.2674781100000008 13.4167388400000007
 11.4795574899999995  2.8183638100000001 13.5443868599999995
  9.8166145900000004  5.6565143800000000 13.5082377900000008
 -4.9069193100000001  8.5333515999999996 13.3954445900000003
  3.2784945599999999  0.0582715800000000 13.5471261300000005
  1.6170808100000000  2.9536741599999998 13.2761203699999992
  0.0791252500000000  5.6119541000000002 13.3790008100000009
 -1.6800086000000001  8.4537275600000008 13.4479536999999993
  6.5182395099999999  0.1105757500000000 13.4928819000000004
  4.7787772500000001  2.9189566899999999 13.3443477700000006
  3.3746521299999999  5.7019274299999996 13.2798157000000003
  1.6519652199999999  8.5534166400000000 13.3996708299999998
  9.7692727399999999  0.0020551500000000 13.3927232899999993
  8.2277564200000004  2.9699280199999998 13.3755751099999998
  6.5645479900000003  5.5882069400000001 13.3755928799999992
  4.9764758899999997  8.4807062500000008 13.3959326999999995
