Sc Cl  C 
 1.0000000000000000
    13.7939866799999997    0.0000000000000000    0.0000000000000000
    -6.8969933399999999   11.9459428800000005    0.0000000000000000
     0.0000000000000000    0.0000000000000000   27.8102210700000008
 Sc  Cl  C  
  32  32  16
Cartesian
 -0.0143535400000000  2.0690610700000001 15.1220082599999994
 -1.6958014299999999  4.9299138100000004 15.0752654499999998
 -3.3232408200000001  8.0206201400000001 15.1755133799999999
 -5.0194358699999997 10.9347540500000004 15.2030178899999999
  3.3187116300000001  2.0598782299999998 15.2875925499999994
  1.5484912500000001  4.9175535699999999 15.0251209499999998
  0.1421203200000000  7.8410252199999997 15.1608730999999999
 -1.6830572600000000 11.2130714999999999 15.1523864300000000
  6.9563002400000000  2.0868247800000002 15.1316304699999993
  5.0681719599999999  4.8326394900000000 15.2163470800000002
  3.3701958699999999  7.8500806799999996 15.2102435299999996
  1.7222283500000000 10.8984442200000000 15.0676143499999995
 10.2179072899999994  1.8707285800000000 15.1470224600000005
  8.6450475600000001  5.0150072699999999 15.2705745999999998
  6.8908673699999996  7.9311427099999996 15.2316943899999995
  5.1516161699999996 10.9227619199999992 15.1052435799999998
  1.7836529400000001  1.1079458200000001 12.5277085400000008
 -0.0260706600000000  3.8128200699999999 12.6288406200000001
 -1.8347033699999999  6.9487341799999998 12.6044478699999996
 -3.4358871799999999  9.9305756699999996 12.5753844299999997
  5.0508491900000001  1.0565214599999999 12.4761102800000003
  3.5168128300000001  4.1128988399999997 12.6684022299999999
  1.6271681000000000  6.9524472499999996 12.7104373000000006
  0.0141486600000000 10.0223873999999995 12.6861090099999991
  8.6258043200000003  1.1006899400000001 12.5684614299999993
  7.0418738599999999  4.1389432900000003 12.7657307600000003
  5.2531921500000003  7.0217624799999996 12.7528717799999995
  3.4720294400000000  9.9257108499999998 12.7466963000000000
 12.1148690299999995  0.8414174400000000 12.6930721299999991
 10.5052250100000002  3.9003287000000002 12.4771521500000002
  8.6319504699999996  7.0005086399999996 12.8362517300000007
  7.0408245699999998 10.0694765099999994 12.6775758399999994
 -0.0163925600000000  2.0084830199999999 10.9019902700000006
 -1.5167264000000000  5.1115368400000003 11.0487335200000008
 -3.5250400300000000  7.9216631099999999 10.8544229399999992
 -5.1887028600000002 10.7989823099999995 11.0381031499999995
  3.2878443000000002  2.0991663500000000 10.8072351599999994
  1.9968888800000000  4.9309019799999998 10.9564624500000001
  0.0038953500000000  8.0214718699999992 10.9423934400000000
 -1.7924806000000000 10.8735633000000007 10.8826064999999996
  6.7533650500000002  2.0133696099999998 10.8440180999999995
  5.2247672999999999  4.9877355400000001 11.0391029500000002
  3.4215797900000000  7.9043646399999998 11.0542807599999993
  1.9450525800000000 11.0112165300000004 10.9462284499999996
 10.4888925000000004  1.9833809800000000 11.0939295999999992
  8.6923791300000008  4.8742131799999999 10.9292217500000000
  6.8138849400000003  7.8994942000000004 10.9897787699999991
  5.0687507199999997 10.6867824599999999 11.1247522100000005
  1.5748268100000000  0.9962665100000000 16.8248194600000005
 -0.0854138400000000  4.0418639799999996 16.8585874500000017
 -1.5316240800000001  6.9421162199999999 16.7977008999999988
 -3.7423185299999999 10.0600360299999991 16.9215302299999983
  5.2382523799999996  1.0367996900000001 16.7976646999999986
  3.4258910899999999  3.8445460300000001 16.8156114199999998
  1.8712673700000000  6.7589258100000000 16.7850614799999995
 -0.0477616000000000  9.8755973899999994 16.7783224000000004
  8.4016603900000000  1.0620529900000000 16.7123599899999995
  6.9374391800000001  4.0098479200000003 16.9156270199999987
  5.2364514399999997  6.8169350700000004 16.9367353399999985
  3.1599454599999999  9.9473122499999995 16.9167923599999988
 11.8526509200000003  1.1400351500000001 16.9290861100000001
 10.6384185999999996  4.0454732499999997 16.8641388499999998
  8.6166342700000005  6.9946520799999998 16.7591758499999983
  6.7830618899999999 10.1014060299999997 17.0316706099999990
  0.0499781100000000  0.0999979800000000 13.7953503299999998
 -1.5878865700000000  2.9831338700000001 13.7143055999999994
 -3.2943099700000000  6.1447507600000000 13.9842913400000004
  8.5528528599999998  9.0274198699999992 13.9677558600000005
  3.4027227400000002  0.0356892400000000 13.7419835700000004
  1.6316536200000000  3.0145105200000000 13.9731035400000003
  0.0520385000000000  5.9639865700000003 13.8831485899999993
 -1.9267836700000001  8.9839350000000007 13.7522456599999998
 -0.0193715900000000 11.9212866999999996 13.8075901999999999
  5.1224375599999998  3.0732458500000002 13.8733013599999992
  3.4663167900000000  5.8290363300000001 13.9144255399999999
  1.6619254600000000  9.0256784099999994 13.9395165100000007
  3.3399714399999998 11.8511348800000000 14.0093116799999997
  8.7192208000000004  3.1186272399999999 13.7970998399999996
  6.9538749700000002  6.0036259599999999 13.9130887199999993
  5.1145309200000000  8.7253810999999999 13.9660721900000002
