Ca Si  O 
 1.0000000000000000
    13.6708636499999994    0.0000000000000000    0.0000000000000000
     0.0000000000000000   13.6708636499999994    0.0000000000000000
     0.0000000000000000    0.0000000000000000   13.6708636499999994
 Ca  Si  O  
  27  27  81
Direct
  0.9778309580316823  0.4849709147673344  0.7829544931493776
  0.2709262219874455  0.9444500143193221  0.4229384527582499
  0.2171276326057132  0.3265573832272111  0.1315552935091998
  0.4448730793975844  0.1422920123996702  0.5950357349954258
  0.6403747125369070  0.0679932185557275  0.3780891750756362
  0.2879669200709203  0.5002360030121433  0.5409796344505272
  0.8424807872324878  0.1793750243423721  0.7654834608784939
  0.5592943764017425  0.7248402488455805  0.6540466212608301
  0.3650723873615695  0.5534488985997604  0.2380718989908147
  0.7816309600893431  0.2038818652104690  0.4867859485965980
  0.5942691908861223  0.9903771419737626  0.8276283642109181
  0.2044653477324383  0.9449240341154306  0.0194244692068156
  0.0793318160261221  0.0799705532868803  0.6238254676762869
  0.5680547519761123  0.5767236293077944  0.0921852314721901
  0.8447424292758563  0.3512184601446157  0.0706522590472914
  0.2740865870606500  0.8050544926618444  0.6702323770159174
  0.5609333745348268  0.4199270153645340  0.5033488853500488
  0.4887711304179382  0.3557214806981123  0.2734415963544483
  0.3876807446616586  0.2397670837716240  0.9745986808960676
  0.6487943978579583  0.8771685488941293  0.1042276974212964
  0.7883467157541287  0.4499432879648390  0.3586217415020448
  0.0411485188062716  0.7401421643174679  0.4550652503947694
  0.9452536658135713  0.7351866456513155  0.9665383481459856
  0.1964839814637461  0.5574255039841612  0.9248517440959189
  0.0165150568230559  0.8969311606000839  0.1772764019923496
  0.0754562752149167  0.2893673670719406  0.4666675817515011
  0.6743240153667981  0.4869295730266464  0.8822584775029924
  0.2574423211367484  0.6868841794058856  0.3732194973651135
  0.9754796442578813  0.8941143005255561  0.7556965671294659
  0.6681941641631398  0.2401814657847166  0.2145434169405969
  0.6166836240810579  0.1080101073204691  0.0501590534113768
  0.4531955565221368  0.6125163716339165  0.8043286394711427
  0.6584771218898083  0.2698487523866131  0.7639102040199194
  0.4179565992526010  0.9352378706520126  0.0713449453502523
  0.9775586445849747  0.2841575404052837  0.9197118552199152
  0.9152763139437794  0.6361707001590934  0.6182164614011054
  0.6357508539703708  0.5815635203120471  0.2978880291882656
  0.1941310971966281  0.6726018330231828  0.1326218530458388
  0.8476236071595959  0.4512355113716608  0.5616745991025959
  0.7951793155365133  0.8177324612552918  0.6753870198976053
  0.4911155441156053  0.9772354557862919  0.5853286964792455
  0.8441342475096664  0.0147624484573072  0.5500737021834023
  0.3311979188674009  0.3454918826580499  0.4059855121150301
  0.3932015458291839  0.5032172689396986  0.9858639881906802
  0.9734996530376485  0.4329437401710901  0.2246907019660020
  0.4013577269494601  0.7297044835934707  0.9909067427499360
  0.0668494429757552  0.2599940238596411  0.7016456184170925
  0.1010481067887763  0.6728411953695405  0.8096943875232052
  0.9967787441139463  0.0321836748038958  0.4080742411617864
  0.8672652916116240  0.9372673664256757  0.0550530251247148
  0.4947184796185133  0.3334701257151373  0.7544113191414941
  0.9809355614485995  0.0847860354455368  0.0554299610763801
  0.2727075717707125  0.1686401129456075  0.4155028208477524
  0.8268567223988077  0.5397130341505527  0.1626854964645924
  0.9192553771099897  0.3642253852776888  0.5321377673165514
  0.6823955200518733  0.8106598839496143  0.6792265673719889
  0.6730946599705133  0.1586801664867750  0.8018831963114489
  0.5910200282042898  0.3095391745787766  0.1482946616909606
  0.0094742500046806  0.3645000753116281  0.1276625131141587
  0.8371094448008778  0.7176876941494476  0.5953103548070279
  0.3614785485772876  0.9281192845486395  0.6006953262239580
  0.6478466442754698  0.1309213518489009  0.1709886397703923
  0.7436314691061966  0.3923902006000916  0.5307387123270738
  0.0438421562342186  0.3542896106640637  0.6560968428647886
  0.1207198961420407  0.5683102113303573  0.7511775870868260
  0.3574504043861194  0.5705906107841255  0.8639849992213184
  0.9898746192234900  0.6375184562681233  0.6983987964798406
  0.1213006121965089  0.3171748421322306  0.9183792634783540
  0.7824484746433704  0.2760158294754114  0.2154149178424437
  0.9729885287825251  0.1973305826951174  0.0066563541506758
  0.5793288034146987  0.3511785555698962  0.8360328975997066
  0.6533749621590293  0.6921385153307414  0.2386292873310897
  0.0278007527344478  0.4268922446607827  0.3254525737296780
  0.5286655331391591  0.8744095929886625  0.5874628703505503
  0.2164299970909299  0.2506714372796777  0.3579582764692413
  0.8947513685428352  0.5531893378221208  0.5059432671614715
  0.2617649514776633  0.7860853319241465  0.4494750520022925
  0.5078535254062022  0.4484758437335449  0.0311082423823311
  0.2026492708088710  0.5476032935197916  0.1267097101067203
  0.0532009365772586  0.6426555889173835  0.9095471162862487
  0.5539384163194401  0.9908206604050214  0.0738509706371038
  0.7596575019603827  0.3181505376216666  0.7615740443728294
  0.8340159855226118  0.4947239233126284  0.6805470581955515
  0.1779593230015135  0.2177759149839813  0.6504881803864675
  0.3178093316730578  0.9729745633151714  0.1386989029036216
  0.8301062391182579  0.9200514577584863  0.6080444676222048
  0.7207938505040974  0.5161834343947977  0.2272440512564106
  0.5315060149839180  0.0265589687159231  0.4934119513363737
  0.0296079772546045  0.9831024574661749  0.6960095202178395
  0.9647516292798372  0.1322047396764139  0.4102447938612862
  0.1014293263030240  0.7226778039001216  0.1525434554385304
  0.9980732095151866  0.8123530688567726  0.5896998190015597
  0.1553544943738796  0.7684675430143728  0.7859779378313089
  0.8824962613097235  0.0312971382755324  0.1405470355927367
  0.4523488616609822  0.8195868905473284  0.0684471745133673
  0.9515483778524849  0.9813633427614502  0.9843828937610684
  0.8615280513020113  0.4113463811776076  0.2301291886559047
  0.5536198929172994  0.1853793553123471  0.9974845473643503
  0.1531551293030415  0.6316414003587842  0.4108364528966683
  0.7648478536321296  0.8770757800660239  0.0234358792686810
  0.6810626174301724  0.0396900118303791  0.9857638796653494
  0.0808899428969142  0.0282702943935806  0.0837932730021779
  0.2764680949765745  0.7339397002909908  0.0101542333793959
  0.5637025850960046  0.0427343359539688  0.6637149994543322
  0.2754491242402231  0.6836053302309105  0.2444133725231032
  0.4081929439768789  0.2318889202000051  0.4105104559359716
  0.8317385046847425  0.1054549344437358  0.6362735173647935
  0.4335573883073583  0.6265772989404368  0.6915565755057472
  0.3856388926825410  0.6167440650320581  0.0580150230669589
  0.3612145835424231  0.0794781615717453  0.3754847653681339
  0.0131995567083284  0.2363846632323043  0.8023396663750647
  0.0069823511113725  0.8836527573735256  0.8611218874968445
  0.0725176920333047  0.9935458152272626  0.3242391266187488
  0.2764054369015669  0.3605892521647672  0.5200163575620185
  0.4318996473935281  0.2574566113824125  0.8244589682525288
  0.1840750361079053  0.1473041053993688  0.4846150901373374
  0.8772407491607160  0.8401234496988053  0.7606044823656771
  0.4293296992981128  0.4285412202176415  0.7252446973238593
  0.3472815347697510  0.4233145614030026  0.3245012058912606
  0.6227991609001235  0.5299734453865320  0.4170498935522629
  0.8768775387500848  0.3247106740033941  0.8987312560900277
  0.7672437534698110  0.0517140312492254  0.4613424639049780
  0.5416422195096651  0.5223552522228543  0.2428241305734916
  0.7843109860875541  0.5473974594136194  0.0418264386683427
  0.5755078078040812  0.5885357038141479  0.8073377587962411
  0.3405267193927430  0.6143363210267991  0.4173480041986960
  0.3060580441090128  0.2002471277665036  0.1347199867654301
  0.9364940078237121  0.5753340280004914  0.1758905107652069
  0.6513236104143282  0.2215481309405057  0.3329092116283378
  0.3494550741130389  0.9602286531473087  0.9684765907236593
  0.8654398941357301  0.8570502610491620  0.1431665036027186
  0.9655173899711890  0.9635870576472322  0.5074528148044253
  0.5805700988027922  0.2883192248062543  0.6850539965702899
  0.3067492520854745  0.4371309079657159  0.0381331994339655
  0.4625841038214144  0.7218992210488473  0.8857542054411464
