Sc Cl  C 
 1.0000000000000000
    13.7939866799999997    0.0000000000000000    0.0000000000000000
    -6.8969933399999999   11.9459428800000005    0.0000000000000000
     0.0000000000000000    0.0000000000000000   27.8102210700000008
 Sc  Cl  C  
  32  32  16
Cartesian
 -0.1599759100000000  1.9151197700000000 15.2375585600000001
 -1.5823901100000000  4.9567842300000002 15.1595724799999996
 -3.6117108600000001  7.8199598799999999 15.0174175099999996
 -4.8787760100000002 11.0613035800000006 15.2572600900000008
  3.4564560100000001  2.0408744300000001 15.0577251899999993
  1.7718544000000001  4.9426625700000004 15.1419853000000000
 -0.0163849100000000  7.9664437399999999 15.3002351099999991
 -1.6907522699999999 11.0215943200000002 15.0614754699999995
  6.9352745100000002  1.9147839700000000 15.2038272800000005
  5.2013901400000000  5.0759171800000003 15.1979248499999997
  3.3628933100000000  7.9382298599999999 15.0700137299999994
  1.7512942199999999 10.8301796600000007 14.9971418700000001
 10.3839513599999993  1.9525546700000000 15.1024322200000007
  8.6548938599999996  4.9541231899999998 15.0555113800000004
  6.7395777900000002  7.8396452800000000 15.2561256600000004
  5.2256831999999998 11.1212108999999995 15.2159195100000009
  1.7203150500000000  1.1045806400000000 12.7469072400000005
  0.0560412400000000  4.0997458599999996 12.7288195200000001
 -1.6977636800000000  6.9052996100000001 12.6938632699999996
 -3.4296675699999999 10.0187002900000000 12.6595249200000008
  5.1609331999999997  1.0262612700000000 12.7393046099999996
  3.6405884400000001  3.8920009699999998 12.6803653399999998
  1.8318881899999999  6.8373153300000000 12.7001434199999998
 -0.1004741000000000  9.7817618700000004 12.5702104099999996
  8.5288098199999993  1.0808098300000000 12.7416336200000000
  6.9336335399999998  4.1121838200000003 12.7019726800000008
  5.1973941999999997  7.0653101300000003 12.6070826100000009
  3.3810061800000000  9.9595651200000006 12.4838627700000000
 12.0913601300000000  0.9474611600000000 12.5786109199999991
 10.1511800900000004  3.8546547200000001 12.7772054799999992
  8.4955719700000003  6.9688376300000003 12.6784461499999992
  6.9052387499999996 10.0423590699999998 12.8022080099999993
 -0.0237771400000000  1.8480976099999999 10.9798585299999996
 -1.7511161300000000  4.8371131800000002 11.1330919399999999
 -3.6256985300000002  8.0756740400000009 10.9574824700000004
 -5.1584844399999996 11.2131734200000004 10.9061761399999995
  3.4133972300000002  1.9453526200000000 11.0069442100000003
  1.7831364300000001  5.0659365200000002 10.9847137299999993
 -0.0846979500000000  7.8743955500000000 10.9376552999999994
 -1.5819588000000000 11.0378103599999999 10.8604105799999999
  6.8330370100000000  2.0786006700000002 11.0624921300000008
  5.2926734499999997  5.1245371700000000 10.7976207399999993
  3.2429468799999999  7.8583295299999998 10.8673748799999998
  1.6585668300000000 11.0545477600000002 11.0039797999999998
 10.2030261000000007  2.1058759899999999 11.0685989800000009
  8.4144807600000000  4.9591289200000004 10.9195307800000005
  6.8440131800000001  8.1307919299999991 10.8426115400000000
  5.0869021200000004 10.8979827900000004 10.8944977099999996
  1.8689498000000000  1.1799408000000000 17.0519556899999998
  0.0993971900000000  4.0239979899999998 16.9153338899999994
 -1.5895192100000000  6.9787220999999997 17.1273842000000016
 -3.3229180800000000  9.8770418299999996 16.7904622799999999
  5.2470170400000002  0.9477282600000000 16.7110494100000011
  3.5307195500000002  4.0397625000000001 16.7141589999999987
  1.7885436400000001  6.9071777200000000 16.7777228799999989
  0.1836118900000000  9.8780464299999995 16.7553722100000009
  8.7250553800000006  0.8525423800000000 16.8940135900000001
  6.7781683399999997  3.7236590399999998 16.6712943100000004
  5.0356632699999997  6.9058916000000004 16.8800530799999997
  3.5377803000000001  9.8992500200000002 16.6791336900000005
 11.8739871699999995  0.8736440100000000 17.0173270599999995
 10.2986900499999994  3.8579063499999999 16.6481580899999990
  8.6893246000000008  6.8296834700000000 16.8171253800000002
  7.1072618900000002 10.3267413500000007 16.8790969000000004
  0.0496999700000000  0.1059317000000000 14.0239013600000000
 11.8844257300000002  3.0448611600000000 14.0687226100000000
 10.2106693499999999  5.9587109099999997 13.8941855099999998
  8.5474285200000004  8.9646737999999999 13.9359683000000008
  3.3807193899999999  0.0788393000000000 13.8382097200000000
  1.7230128499999999  2.9067512700000000 13.8824617099999994
 -0.0371700800000000  5.7900716000000001 13.9890276300000007
 -1.6977154000000001  8.9687293199999996 13.8964713999999994
  6.8954795000000004  0.0974484300000000 13.9075427800000000
  5.1779591500000004  2.9589593999999999 13.8024455699999997
  3.4124730300000001  6.0759203399999997 13.9804218299999992
  1.7176168900000000  9.1158980700000001 13.8427364100000005
  3.4255596200000000 11.9156424600000008 13.9065423100000007
  8.4521621499999995  2.9422570700000001 13.9825801799999994
  7.0265139500000000  5.9751141399999996 13.9608404700000008
  5.3464739999999997  8.8284658700000005 13.8138621799999992
