Ca Si  O 
 1.0000000000000000
    12.5260700000000007    0.0000000000000000    0.0000000000000000
     0.0000000000000000   12.5260700000000007    0.0000000000000000
     0.0000000000000000    0.0000000000000000   12.5260700000000007
 Ca  Si  O  
  27  27  81
Direct
  0.0226562106071577  0.4068672281090557  0.6530730620218471
  0.6026769114335142  0.7184443029617430  0.3450228076324018
  0.2952543056201985  0.3511431294891375  0.1887446932677208
  0.3986698357904753  0.5697246374960382  0.9101334233322981
  0.8318203786183536  0.0405914600509178  0.6127693442556205
  0.4689323930011567  0.3310759775412400  0.9604845350536919
  0.5222646264949820  0.1818092889469722  0.2161939858231672
  0.5470513720584349  0.1634375737960909  0.7090182020378297
  0.0597994558548691  0.8503207957483870  0.2069160135621148
  0.6472299124945015  0.8494659881351453  0.8023570992338378
  0.2398891958930455  0.7552794348107587  0.4740857339931838
  0.1722668554462812  0.4274625225629426  0.3611963472980751
  0.0554030537910135  0.7081025924332213  0.9904899597399662
  0.0024568176610860  0.1725548555931748  0.8674469494422431
  0.2781150991492144  0.8827098363652764  0.9876542395180611
  0.3300308301007419  0.0321257968381144  0.6461042833067354
  0.2600695661129149  0.0961256156160711  0.2628638926654569
  0.5333332433875908  0.8854726997374275  0.0450965873574074
  0.7568310739122485  0.6848544842875698  0.1534895789341749
  0.8371719629540629  0.8701510306105585  0.4885945464139990
  0.7307079522946941  0.3962442561793124  0.6770768437347068
  0.9084371786202695  0.1628654382420024  0.2719383062684465
  0.1486550330630437  0.3965332079415171  0.9450699692720861
  0.7389377115088770  0.3542132999416416  0.2087562930751624
  0.1972012834033340  0.7539929778454056  0.7509862534697634
  0.7564621473454962  0.6438110053672061  0.6947650324483257
  0.4532267071795064  0.9360112684984196  0.3518208679977040
  0.4529669936380684  0.5095800111287898  0.1712912150419086
  0.7510460359873448  0.4262198622552803  0.9279176804855792
  0.0405549897134536  0.6048550279536997  0.4921828674117261
  0.3944516300803045  0.7363549509143730  0.1934403264551451
  0.5648120903044610  0.9260829278456850  0.5688165873254739
  0.0193632751533402  0.3445272116473881  0.1578543677306609
  0.8216118583083121  0.6132940794678617  0.3810903276127308
  0.4019393592723017  0.9977595734336467  0.8462710011998974
  0.9740224715333698  0.4657012223307070  0.8437115344238056
  0.2506908966659135  0.6324141482524047  0.0724473573914244
  0.5141537641095730  0.4163805503242437  0.3290056059083176
  0.7884844153034432  0.7970525448125388  0.9443688187915283
  0.4490213219309807  0.4029944308150920  0.6986087815252509
  0.7138407337656583  0.1854643172200059  0.9299828717227351
  0.7519489911839865  0.1376842329637308  0.4356133631697731
  0.4243922906386440  0.5660335380530366  0.5096518173696937
  0.0524788820436098  0.9410824456513494  0.7067245872009337
  0.0092116984816467  0.5988744274940184  0.2312758367149473
  0.3970822995560458  0.2338860855799145  0.4193390488796566
  0.0959618842941162  0.0358449649411188  0.0692289505008355
  0.3074474971000481  0.1504188791855706  0.9941572320767805
  0.2579141414665573  0.2524745470846003  0.6241186820766609
  0.0508285024752376  0.1725217047326096  0.5942789318597134
  0.1252532534146783  0.9558155758350383  0.4823417967487009
  0.8309672235585462  0.9826634187738054  0.0327274404501971
  0.6731992013456733  0.9808921752792376  0.2164806232122286
  0.4627688628596199  0.7378085401087491  0.6711628794985178
  0.3074891630016438  0.9253685840810405  0.7974369654648265
  0.4087944997912354  0.4804510353207351  0.2892311307537000
  0.5150401945702043  0.3667210034751522  0.2018944824673660
  0.9299298063957808  0.6610104478100473  0.4694552521261656
  0.8800047684549103  0.4784657661980174  0.9225943037201612
  0.8998235999000485  0.2968924411247901  0.2090538061818272
  0.3399268908763882  0.7229413064113484  0.3103755838822552
  0.3007388271021956  0.5494321227647618  0.4659637867264033
  0.6918141124869970  0.0473198257713712  0.3272007253671742
  0.2979316465579387  0.2870379193154756  0.3629729843438524
  0.7919268677246734  0.2866843710756846  0.8730836655072181
  0.8950831250344281  0.8647949141270964  0.0032971514609131
  0.3997404836473051  0.6600880555513421  0.0781021453656254
  0.8980325337476158  0.5305183078172163  0.2997382075942414
  0.3295897963207933  0.2639421877731802  0.9332888878954052
  0.5054766642690005  0.2796458785556842  0.3726924845542137
  0.5434063461245227  0.8531884773117185  0.4623844789307420
  0.3209514157273590  0.1695078272754343  0.1417282395835246
  0.0148923149878613  0.4804818286980673  0.1574512460811731
  0.7045454783503525  0.7207167667113467  0.9941111186509415
  0.9741047758794258  0.6877338870052617  0.1429831631150073
  0.3959479693151962  0.4603427874824266  0.0610767032277482
  0.6764747139366136  0.4657766011207026  0.8255767962337748
  0.3939194567809376  0.1015876184629337  0.3625759244519630
  0.1530951192193561  0.0065292857216988  0.1947603047084999
  0.0945704510672541  0.6623834714319814  0.5906321264371027
  0.9979065309390734  0.0875742351751188  0.6955145732061212
  0.6536712336750472  0.8566226350323763  0.2200511094062224
  0.7895452835566142  0.7620560614781809  0.8154785914496725
  0.2619461307497084  0.6496440120484716  0.9390961386931415
  0.9708197710854242  0.9083666034119240  0.6182505973541581
  0.1123575303347339  0.3084549096404539  0.2500317601610082
  0.5482217718725825  0.0288195627199912  0.1614819468516462
  0.1496831312614411  0.9123259426140840  0.6333906708169441
  0.2037279849146620  0.7249689902738846  0.1458171812867084
  0.5515578972494963  0.3325208992126021  0.6989936891618839
  0.7173741357025786  0.1539139418828092  0.5498779281929607
  0.5033185811671178  0.9242443743328913  0.8569483165909180
  0.7207298266734897  0.9178120471943714  0.9497438773693584
  0.0553515699656796  0.8601484144667879  0.4276362538290142
  0.1843854968078575  0.0819827743258660  0.9824989737403670
  0.0408161234928433  0.3626873800002714  0.8097820058486020
  0.3299165284881850  0.3386364390427324  0.6717422248159238
  0.3500303766464661  0.2082858542224337  0.5343286944748034
  0.6274193007064466  0.1523839544246519  0.8361520828160788
  0.5876799139714212  0.7211107346518102  0.7154438910208868
  0.4189851805075334  0.4284129954566755  0.8212917507246884
  0.8585207970257230  0.0619262019132896  0.4401489014511335
  0.7808375124839634  0.2313836694190596  0.3523360958385192
  0.0704485956089979  0.0780103919265979  0.4830317896994029
  0.0823066923624090  0.6373668325340669  0.3290584373231188
  0.3696686518596814  0.6882062618203474  0.7551471267524450
  0.9499488466853530  0.2677744216661730  0.6373474473637780
  0.6554454900858768  0.2116601847187505  0.0332909228513013
  0.8137021635676631  0.0122382926169182  0.1643595253738802
  0.5470583407245848  0.6352499363327843  0.2146602142571453
  0.4531815254106036  0.5132313894142376  0.6276601735420606
  0.8069259871611766  0.0969398039448925  0.9829496969121200
  0.7840151428181383  0.7398337914445631  0.3398460953834682
  0.0899310342349995  0.9072583659519705  0.8331255924643562
  0.6449746824023815  0.4431608637026617  0.3013375695649154
  0.9974832018342543  0.1106591420932503  0.0391985395259646
  0.5087507598153291  0.4796920813950425  0.4531787488014996
  0.2651634798464322  0.9364237067172704  0.4663959893246644
  0.6841376361460538  0.9080852933122678  0.6077939561251055
  0.4796054029715625  0.0490411964806200  0.5466464142384642
  0.0541935156038566  0.5674795294932887  0.8572002216177937
  0.1911610353446851  0.1772548660513633  0.7166414893098951
  0.4211858459995833  0.8515617053074108  0.1555155862932268
  0.0363770903403861  0.3187707668885771  0.0342136328473336
  0.1474266789184477  0.2740388557624219  0.5484485189688385
  0.4441718216487693  0.6938790251052405  0.5444935019523282
  0.9037568710696970  0.4893252472643055  0.7292601326673089
  0.3976196843862440  0.1100655448995575  0.7647782201440675
  0.1085264228924156  0.9180640671814861  0.0406823145647438
  0.1883805654926086  0.5204209141414665  0.1022239609071321
  0.7352370120875901  0.6047727283976538  0.4760542269043682
  0.3796609535153483  0.0420819706420290  0.9757570067866457
  0.7209283135093448  0.4624306282816557  0.0538630751704246
  0.0635778125142203  0.4879734409914682  0.4696616017633622
  0.4644969794995557  0.8660213658394053  0.6493240537534917
