Sc Cl  C 
 1.0000000000000000
    13.7939866799999997    0.0000000000000000    0.0000000000000000
    -6.8969933399999999   11.9459428800000005    0.0000000000000000
     0.0000000000000000    0.0000000000000000   27.8102210700000008
 Sc  Cl  C  
  32  32  16
Cartesian
  0.0155632800000000  1.9808862100000000 15.4000146099999995
 -1.8000444000000000  4.9746249799999998 15.1068137000000000
 -3.5150451000000000  8.0580862100000008 15.1390405200000000
 -5.1469690699999999 10.8484840899999995 15.1170864500000004
  3.5829689700000000  1.9724031399999999 15.1184961500000004
  1.7924656400000001  5.0057947900000004 15.1506213899999995
  0.0630725700000000  7.8937790300000001 15.1636201400000008
 -1.7390804000000000 10.7573070899999994 15.1507524300000007
  7.0500490400000002  2.1130054800000000 15.2026537099999999
  5.2017300300000002  4.9513009300000004 15.1386093800000001
  3.2674341199999999  8.0329768599999998 14.9718837899999997
  1.6616584800000000 10.9286946100000009 15.0571650800000008
 10.4085036300000002  2.0797250200000001 15.1634025399999999
  8.6226651499999996  4.9439499600000003 15.1328114800000009
  6.8290563300000002  7.8799149699999997 15.1968075900000006
  5.2146002899999999 10.9629075599999997 15.0800789599999998
  1.6750970700000001  1.1498143500000000 12.8231190599999998
 -0.0695224400000000  4.0090108999999998 12.7149506399999996
 -1.7115753700000000  6.9375284600000002 12.7046590300000002
 -3.3715872800000000  9.9060860700000006 12.6484315499999997
  5.2039451899999998  1.0990970000000000 12.7248622999999998
  3.3246773300000001  3.9364447700000000 12.4130246100000008
  1.8190063400000001  6.9148676299999998 12.6705241399999995
 -0.0610672400000000 10.0479022699999998 12.4373207099999998
  8.6392156100000008  1.0970911600000000 12.6627539500000008
  6.6999153199999997  3.8895396000000000 12.6632693399999994
  5.2306494700000004  7.0086034599999998 12.5929146799999998
  3.3969253699999999  9.9458609300000003 12.5617042699999999
 12.1830555100000009  0.9536648100000000 12.7791981000000003
 10.5033895200000007  4.0562074099999998 12.7701418100000001
  8.5985192700000006  6.9435539600000000 12.7554247899999993
  6.8891377000000000  9.9338481499999993 12.5346729200000002
 -0.0313715200000000  1.9552870899999999 10.9710026500000009
 -1.8352263000000000  4.7878591000000004 11.0628227500000005
 -3.3126551100000001  7.8839081599999998 10.9027658499999998
 -5.1764759299999996 11.0174951900000000 10.9723390900000002
  3.4575877699999999  2.0182779499999999 11.0543873700000006
  1.5658430500000000  5.0883134800000001 10.9517548199999997
  0.2210462500000000  8.0174324600000002 11.0427033500000000
 -1.7270567900000000 11.0566637300000004 10.9183000600000000
  6.9144073199999996  2.0319138400000001 11.0904845099999996
  5.1179025800000000  4.9890348199999996 10.7763468099999997
  3.4350025899999999  7.8545351500000002 10.9142659099999992
  1.8364840099999999 11.0924164600000008 10.8325900300000004
 10.3282780800000005  2.1186075400000002 11.1977832300000006
  8.7682289099999995  4.9125190099999996 11.0421417000000002
  6.9225532400000001  8.0328676300000001 10.8997938100000002
  5.1959786399999999 10.8007001500000008 10.9733137999999997
  1.9085781600000000  0.7742634600000000 17.0289430199999998
 -0.2021562000000000  4.0086583600000001 16.7026426900000011
 -1.7503150800000000  6.9734718300000003 16.9052212399999995
 -3.4887740500000000  9.9568430400000008 16.6440413099999986
  5.2287233100000003  0.8820907900000000 16.6415349600000013
  3.4029385200000002  3.9887786799999998 16.5984542099999999
  1.8400363200000001  6.8770904499999999 16.9541507200000012
 -0.2548851000000000 10.0736357600000002 16.9782269799999987
  8.7778991600000005  1.0506490300000000 16.7742610899999995
  6.8203428400000004  3.9857216800000002 16.9116192299999994
  5.0260065300000001  7.0008788700000002 16.9979607399999999
  3.2771001599999998  9.9331277300000007 16.7785426800000010
 11.9926586700000009  0.7786851200000000 16.8968706600000012
 10.4155492100000000  3.9150528699999998 17.0765540800000011
  8.5003252000000007  7.0076489200000003 16.8339447699999987
  6.9106012899999998  9.9284124800000004 16.9797476399999994
 -6.8607299299999998 11.9146975800000003 13.9233035500000000
 -1.6774964100000000  3.0086216200000000 14.0141398200000005
 -3.3784913200000002  6.0900872699999997 13.8971948500000000
  8.5073567499999996  8.8856126999999994 13.9653979800000005
 -3.4453422100000002 11.8611273799999992 13.8374885499999998
  1.8867043500000000  3.0700156900000000 13.8656363400000000
  0.0855566100000000  5.9954831400000002 13.8933665099999999
 -1.6637592100000000  8.9748791200000007 13.8128095200000001
  7.0488019199999998  0.0267574400000000 13.7351500499999997
  5.0690404700000000  2.9934043099999998 13.8540257499999999
  3.5407657800000001  5.9954471900000001 13.9051732999999995
  1.6802496000000000  8.9422173100000002 13.9401124400000000
 10.3963283400000002  0.2320467900000000 13.8417490900000004
  8.6169317799999998  3.0761456200000001 14.0476144000000005
  6.8546084299999999  6.0168271000000004 13.9530177500000008
  5.1100102200000004  9.2028157099999994 13.7973761899999996
