Sc  F  C 
 1.0000000000000000
    13.1286234000000004    0.0000000000000000    0.0000000000000000
    -6.5643117000000002   11.3697213799999997    0.0000000000000000
     0.0000000000000000    0.0000000000000000   26.8280942399999986
 Sc  F   C  
  32  32  16
Cartesian
  0.0025660900000000  1.9386416600000000 12.2720753600000005
 -1.5940029400000000  4.7998984499999997 12.1850156900000002
 -3.3702980800000000  7.6747593600000004 12.2064854599999997
 -4.9458556099999997 10.5275358299999997 12.2258826500000009
  3.2595105900000001  1.9405208500000000 12.0975708100000006
  1.6526056000000000  4.8323622300000002 12.1363844099999998
 -0.0099891900000000  7.5572716599999996 12.0556168699999997
 -1.6766561600000001 10.4486460799999996 12.0557225700000004
  6.6145119200000000  1.9101007100000000 12.0256038299999997
  4.9701034000000002  4.7565542100000000 12.1474122500000004
  3.3184791400000000  7.6194149900000001 12.0773529499999999
  1.6116568099999999 10.3206251600000005 12.1875881499999998
  9.7985358700000003  1.8354035700000000 12.1560153999999994
  8.1387281700000003  4.7799711299999998 12.1557842300000001
  6.5626009700000001  7.6664733900000002 12.1733664400000006
  4.9936872100000000 10.4853959900000007 12.1688888800000008
  1.7745446100000000  0.9369647300000000 14.6891842900000000
  0.0462183500000000  3.8622009199999998 14.7991380199999991
 -1.7147704399999999  6.6806158800000004 14.7151797000000002
 -3.2502825799999999  9.4843262700000004 14.6316288900000000
  4.9228450300000004  0.9330880300000000 14.7085676400000001
  3.3515199600000001  3.7875439300000000 14.7661536800000004
  1.6566474099999999  6.5885259899999999 14.6854730100000008
  0.0081569200000000  9.4570823700000002 14.5579438000000003
  8.1523868299999993  0.8400656300000000 14.5822375300000004
  6.5430254400000001  3.6985511000000000 14.6488887600000002
  4.9179845100000001  6.5227598400000000 14.6809666900000000
  3.3754035000000000  9.3306324000000007 14.8270429499999992
 11.4354809999999993  0.9945339200000000 14.7387570500000002
  9.8297001999999996  3.8217343300000000 14.6513353399999993
  8.2587359599999992  6.6653603700000001 14.6468471900000008
  6.5092577299999999  9.5150718399999992 14.8051585100000000
  0.0039693900000000  1.8072231000000001 15.8406572400000005
 -1.6760818799999999  4.8119257600000003 15.7355547500000004
 -3.2505537800000002  7.5016813700000000 15.9757542800000003
 -4.8966955399999996 10.2771865299999998 15.8881146599999994
  3.3238874699999998  1.9422969600000000 15.9247471399999991
  1.6689118500000000  4.6683707900000000 15.8285316700000003
 -0.0197355100000000  7.6095057400000004 15.7092510200000000
 -1.5748238999999999 10.3311700200000001 15.7678292100000004
  6.5397209099999998  1.8604213400000000 15.6680253399999998
  4.9746065799999997  4.5278429600000001 15.9420857799999993
  3.3645418899999999  7.5763905999999999 15.8733164099999993
  1.6392036500000000 10.2967490399999999 15.7715944900000000
  9.7270005600000005  1.8928105900000001 15.7209747499999999
  8.2065474599999995  4.6400763800000000 15.7086383999999999
  6.5832685199999998  7.3832878199999996 15.8507245500000007
  4.8127398000000001 10.3135299200000006 16.0047364200000004
  1.6203085800000001  0.9384655700000000 10.9251055200000007
  0.0279274900000000  3.7582303300000000 11.0642930499999999
 -1.5986280600000000  6.7670218599999998 11.0385895200000004
 -3.3401192300000000  9.5616026999999999 11.0117038199999993
  4.8462281699999998  0.9092633900000000 10.8256150400000006
  3.3428075200000000  3.9667927900000000 10.9586117900000009
  1.6381098300000001  6.6005932600000001 10.9780972800000001
 -0.0734428100000000  9.4317964100000005 10.8752193699999999
  8.1975223199999991  0.8681242900000000 10.9582721299999992
  6.5176556799999998  3.8394737999999999 10.9163188600000005
  5.0328730100000003  6.6350751199999998 10.9681648099999993
  3.2245887000000000  9.5124849699999992 11.0226684600000002
 11.2965830999999994  1.0866161900000000 11.0238773999999999
  9.7936351300000002  3.8071592700000001 11.1027110800000006
  8.1861180900000008  6.7122925599999999 11.0768409099999996
  6.6297068899999996  9.4843531900000002 10.9312140600000003
 -6.5073890099999998 11.3386231399999993 13.4921048999999993
 -1.6700233099999999  2.9369912899999999 13.4248877300000000
  9.8168827400000005  5.7188910799999997 13.4178975600000001
  8.1586079500000004  8.4579809299999997 13.4301435900000001
  3.2297910600000002  0.0064092000000000 13.4224570300000003
  1.7275100999999999  2.7682132799999999 13.4571025100000004
  0.1013060500000000  5.6844823299999998 13.3488211600000000
 -1.6981262100000001  8.4633840500000002 13.3604576300000009
 -0.0048922900000000 11.3548606799999998 13.2991691099999993
  4.8845675499999999  2.8725356199999998 13.3242909500000000
  3.3248493699999999  5.7068360100000000 13.4192442199999995
  1.6263874300000001  8.5553627500000005 13.3741618800000008
  3.3217048000000000 11.3258175699999999 13.4425190299999997
  8.0788812700000001  2.7716827799999999 13.2586072300000009
  6.5826767000000004  5.7183551300000000 13.4530925700000008
  4.9627706900000002  8.4773791999999997 13.4792211799999997
