Sc  F  C 
 1.0000000000000000
    13.1286234000000004    0.0000000000000000    0.0000000000000000
    -6.5643117000000002   11.3697213799999997    0.0000000000000000
     0.0000000000000000    0.0000000000000000   26.8280942399999986
 Sc  F   C  
  32  32  16
Cartesian
  0.0879403000000000  1.8859041500000000 12.1935726500000001
 -1.6420406200000000  4.7268470400000000 12.0626736999999995
 -3.3058288100000000  7.5137697200000000 12.1083940999999999
 -4.9610770200000003 10.4758368100000006 12.1839450700000000
  3.2600525999999999  1.9533276200000000 12.2440737899999998
  1.6525311499999999  4.7939249400000001 12.2431055000000004
 -0.0810571300000000  7.6190040000000003 12.1486591900000001
 -1.6449127200000000 10.4064613799999997 12.0499908799999993
  6.5321165299999997  1.9836726000000000 12.0973292400000005
  5.0172555100000000  4.7183147500000002 12.1646844400000003
  3.2541537599999999  7.6879686300000003 12.1594753000000004
  1.5656960099999999 10.4670419900000002 12.1255651699999998
  9.8935484599999999  1.8351152600000000 11.9642598699999994
  8.1826421000000007  4.7797495799999998 12.2715931400000002
  6.6313212500000001  7.6246555400000000 12.1214311800000001
  4.8871431599999999 10.4870457899999998 12.1816828099999999
  1.6436356100000000  0.9097985400000000 14.6644494999999999
 -0.0015553700000000  3.7423565999999999 14.7398336699999994
 -1.5442340100000000  6.5701825800000000 14.7486743300000001
 -3.3939435499999999  9.4495494000000004 14.6978522799999993
  4.7459586399999996  0.9687083300000000 14.6937633900000009
  3.2998886900000000  3.9011544300000001 14.7603668100000007
  1.6407357000000000  6.7312375500000003 14.7274147499999994
  0.0274970000000000  9.5148649400000007 14.6617546099999991
  8.1814940600000003  0.9391298800000000 14.7168370300000007
  6.6905905099999998  3.6440065000000001 14.6794586999999996
  4.9052445499999999  6.6195912000000003 14.7409903999999994
  3.2760327899999999  9.3565804799999999 14.6045579300000004
 11.5811604700000004  0.9405261700000001 14.5961511200000000
  9.9248132699999996  3.7021713699999999 14.5061238499999998
  8.2432267499999998  6.6813716599999999 14.6676786499999992
  6.6040317799999997  9.4879426700000007 14.7854582299999997
 -0.0466583700000000  1.7326967600000001 15.7555060600000001
 -1.4741718100000001  4.6354876000000003 15.8270104400000005
 -3.2638483300000001  7.6618869399999996 15.7747100000000007
 -4.8776753199999998 10.4853326399999993 15.8255392199999996
  3.1629457599999999  1.6340614000000000 15.7278807399999998
  1.5710855200000000  4.8468710699999997 15.9423713899999999
  0.1203017500000000  7.6630379299999998 15.9344693999999993
 -1.5674973100000000 10.3878029299999994 15.8751458200000002
  6.5115563500000002  1.8899941099999999 15.8661909300000001
  4.8786361800000000  4.8435965599999999 15.8833937699999996
  3.2805770900000000  7.5241477899999998 15.8810039300000003
  1.6540954999999999 10.3026793600000008 15.8730233100000007
  9.7819658999999994  1.9467115800000001 15.7716411200000000
  8.2557024600000002  4.6214795000000004 15.8187753499999992
  6.6067230900000000  7.5286736799999998 15.8192670700000004
  5.0459951800000002 10.5068027599999994 15.7989155599999993
  1.5087141500000001  0.9402496600000000 11.0267625799999998
  0.1188512500000000  3.7919501800000002 11.0708469600000008
 -1.5821969300000001  6.6421756700000003 10.9468972499999992
 -3.3608698499999998  9.3110129500000003 10.9590320999999999
  4.8121304900000004  1.0080869400000001 10.8573140400000003
  3.2165718100000000  3.6892120300000002 11.0923497900000001
  1.4785541000000000  6.6777727400000000 11.1381798799999991
 -0.0311255800000000  9.5100656000000008 11.0346749699999993
  8.1030869600000006  1.0296164100000000 10.8575743500000002
  6.6253111100000002  4.0127879100000001 11.0148408700000005
  4.9825968899999999  6.6835328299999999 10.9993997100000005
  3.0738314600000001  9.2832170999999999 11.0613800199999996
 11.4509161400000004  0.7789931500000000 10.8785267399999999
 10.0454196800000002  3.6921602899999999 10.7672531599999992
  8.2404609000000004  6.6159275800000001 11.0774374200000008
  6.5881009600000002  9.5013264399999997 11.0180486200000001
  6.4661095000000000 11.3677761799999999 13.3438456599999995
 -1.6199658600000000  2.8075072699999999 13.3266940700000003
 -3.2626293700000000  5.7108458200000003 13.3419163899999997
 -4.9589411700000001  8.5999042600000006 13.4904793900000008
  3.1858732500000002  0.0348383300000000 13.4493621999999995
  1.5988952299999999  2.8832968800000001 13.4891620799999998
 -0.0425776600000000  5.7551592800000000 13.3801612900000002
 -1.7133910999999999  8.5792148099999999 13.3792890100000008
  6.5808192600000002  0.0400317300000000 13.4422631300000006
  4.9891329300000002  2.8562597699999999 13.5004709599999995
  3.2336578500000002  5.6304603499999999 13.3711007599999991
  1.6791826800000000  8.4680371999999995 13.3292575899999992
  3.2021389999999998 11.3429143200000002 13.3079317199999991
  8.2050918700000004  2.8304318199999998 13.3085878100000006
  6.6649615600000001  5.6147166999999998 13.5743939299999994
  4.8974340400000003  8.5274226800000008 13.4739141599999996
