Ca Si  O 
 1.0000000000000000
    12.5260700000000007    0.0000000000000000    0.0000000000000000
     0.0000000000000000   12.5260700000000007    0.0000000000000000
     0.0000000000000000    0.0000000000000000   12.5260700000000007
 Ca  Si  O  
  27  27  81
Direct
  0.4339507946227348  0.9061386141064196  0.8539847062965479
  0.1969840843935887  0.5873112692169211  0.1588528676592099
  0.7371779049614124  0.0119320385404201  0.7068686794820721
  0.8724649670646899  0.3691152556228729  0.1094833175928284
  0.9447522742568100  0.8232879594318090  0.3254154112183629
  0.2936829891578124  0.6431532068717483  0.9116390232531032
  0.1942287413370674  0.0692574614384240  0.4289738489406493
  0.9419593232354601  0.7755134291920769  0.6171273927097645
  0.6943933596091990  0.7781699519482168  0.2550724952040025
  0.9041875280914125  0.1889958718097536  0.3504664823045057
  0.0533340832360030  0.1605193823761164  0.7855875234610695
  0.2705730608243447  0.0222616311420901  0.9854377214880645
  0.7683622540828847  0.2238201255461609  0.8910768964248162
  0.4187104718399307  0.3922732924213261  0.1136288364985985
  0.6717973538388337  0.9475847819787051  0.0277142112410357
  0.5800498504319390  0.3386724048324813  0.6804785922480074
  0.4069508513045193  0.2720306337103337  0.4231546790014745
  0.2969984081200248  0.7768948928115521  0.6619643343842082
  0.4730141592694276  0.8778879840205267  0.4282966668715726
  0.9598034579081866  0.4995598803136179  0.2960879294144133
  0.8393850034368321  0.4520065351702489  0.8287064402482182
  0.6877696516145926  0.4000493211358390  0.3345905220073015
  0.6848124982536422  0.1688488017390929  0.4871458414331070
  0.6947362420934897  0.5809800328435015  0.1275221533968755
  0.1806550139030039  0.4176794182053908  0.3616103885735909
  0.7209376723904624  0.6262435871745886  0.6331499831950483
  0.1877953587996873  0.8594702185122707  0.2191352818561608
  0.9635304233490631  0.5149476835112688  0.5225840930156066
  0.4494073504299433  0.7173519882932156  0.1883440680117547
  0.1967861587872334  0.2207329673233504  0.2475313262659397
  0.3680218097136612  0.4472387468695289  0.7103788794091043
  0.4344212765855531  0.9151200959279326  0.1631871401006062
  0.3600967158893412  0.0219477505714083  0.6199506613007910
  0.0799860650627052  0.5101080426662153  0.9830919825611704
  0.3242019699714276  0.5608502339520695  0.5275330179377888
  0.6134993194194188  0.1803283048873270  0.2419198064516644
  0.1292519289769257  0.3584956319100883  0.1022253124882744
  0.9369681384504476  0.7375953463456614  0.1055027354948519
  0.5309702811815676  0.5997063691964040  0.3935240071307281
  0.9383697113300499  0.1710784715397567  0.6318515727598519
  0.5271339989318278  0.0803028906911745  0.7806131571993450
  0.8496530787389819  0.0814462892192044  0.9966580930810700
  0.0625839724670228  0.0486733660278124  0.1833507061672176
  0.4819728621985985  0.6086331770459529  0.8235988191028789
  0.8974343844477956  0.7194466524616260  0.8819598629099149
  0.7838815470454820  0.0335747940096135  0.2265078783688738
  0.7673900912257395  0.8922508831580854  0.4925986993526301
  0.4701886146253373  0.1595884215879362  0.0324090524801474
  0.1447049170250525  0.8184016734698113  0.8055445363150613
  0.8241061378389231  0.3571259916318526  0.5738528620708649
  0.6969075679762288  0.6771876374633065  0.9118530744279729
  0.1180384007114761  0.6897261255924643  0.4523549261659882
  0.2171712500409146  0.3782495667036828  0.8877761356914019
  0.6557327996730019  0.4135537778409349  0.9746836453891763
  0.4451493533087393  0.0092745801356690  0.0098512709892249
  0.4496991817864661  0.7190901559707075  0.3280668837073399
  0.5588831980022464  0.1815544205006039  0.9062113184741901
  0.6754189039339553  0.3042720981121773  0.5541454805856905
  0.4881034817784029  0.1384796723952525  0.5049490574457910
  0.6264318329691595  0.9493338205837903  0.4814598249890029
  0.2744084856623027  0.9255505533659000  0.5661549025352723
  0.4032035562630577  0.5776958894529569  0.7513467248706097
  0.7888421963153646  0.4621084977171611  0.6412752331736929
  0.1949122677743299  0.3437794248315713  0.2031713865561983
  0.4558750717503575  0.5533026815274064  0.9428686363719825
  0.9139141422648922  0.3069986053087680  0.7347800842562751
  0.5831922215028337  0.1811708907901680  0.1170419181754533
  0.9115073418877588  0.6049624598936458  0.5802755133892753
  0.9291861565518952  0.4761500023550882  0.9936399620950545
  0.9169205369281824  0.0730999930544856  0.2297278460043733
  0.1902408504822342  0.7296933467560057  0.3509020347163955
  0.3200194426504083  0.9979388962380059  0.1756680339483972
  0.6964366237774497  0.0754837774337841  0.2986992161148708
  0.6101406977607502  0.6228406235954292  0.8043812776074220
  0.4694384551579226  0.9262611042409949  0.6653540519891713
  0.8863239994667121  0.5937747250334702  0.8598012744619820
  0.6138208632076940  0.3637283864771632  0.8728376354275522
  0.3732339776162834  0.2345424957708204  0.0343315493207367
  0.7199609063337503  0.2563703380230192  0.2801775457106658
  0.7721614584622312  0.1232241876342700  0.0973883955622154
  0.8019764954211496  0.4661498035696751  0.2575402851812260
  0.0676391461966922  0.4751447788492320  0.1486250827274636
  0.0325881246073190  0.9743308156508783  0.0814813720504516
  0.1561252603569994  0.1393474625321429  0.1768139536183336
  0.5665913379056638  0.7218435997882815  0.1446725014310155
  0.2463449429869065  0.4226564660743553  0.0169312481887775
  0.0606414861165553  0.5550978718784103  0.4220097229218741
  0.3582036209281921  0.6188092490302225  0.1594258702051002
  0.0735756075129709  0.9632660052195141  0.2925640779590087
  0.1988388473000710  0.6945458942828835  0.5488572249715992
  0.3996576539968242  0.0670556447473150  0.8360237488693579
  0.2989518643916248  0.4928387922149565  0.6235057516044537
  0.8376214590849324  0.7804631963576764  0.7938039584642269
  0.0622388937631675  0.7483372989293530  0.1258818735644939
  0.8814816315093241  0.4299855732883498  0.4570632185513891
  0.0288421172802004  0.7692472211954746  0.8662631535669207
  0.6595904573421671  0.7832882867491558  0.9751509667437591
  0.5136145662606069  0.8877928376577809  0.2602232575740037
  0.8034913544311981  0.0155844299129735  0.9041333227420890
  0.1245236614516764  0.6208070304572783  0.9610058326354554
  0.1101921935611089  0.4678996077780181  0.8434046121409189
  0.8340865355215162  0.2010044044141538  0.5462341700150166
  0.9856916790342062  0.4215283883931672  0.6029384124470004
  0.7828964886832023  0.9101182286223851  0.1698695823989487
  0.3168101559387740  0.4230025810170308  0.4659609270904601
  0.5218738598778387  0.2080456695515832  0.3084167596061653
  0.2453301713945395  0.8291174733974821  0.8821113342013895
  0.1650752374847019  0.2692364580431053  0.9213890701552840
  0.8447457175315163  0.7338661367851209  0.9906806524312891
  0.4408296065725323  0.3870922691634327  0.6468223377324251
  0.1050096398950349  0.8368283779349788  0.6861553200644734
  0.1550230599062595  0.9787081790218319  0.8199034445759923
  0.5932607952853528  0.0130651569087511  0.8586659295373568
  0.0172421589532870  0.7820081398235839  0.4957475872320687
  0.6022855772001913  0.1701026107949261  0.7069591555851117
  0.7588993155874107  0.3267221403041816  0.0073985783250453
  0.6335203268064125  0.6920039916749626  0.4050149775627950
  0.5835217646077341  0.4407975079174873  0.0785671124303153
  0.0065550990853476  0.2735005704103521  0.1327627284535373
  0.8096934010427851  0.8100425432717524  0.4109081555507832
  0.0996083584077049  0.2662140112581201  0.3257450940318871
  0.3093009427537927  0.1577593371264890  0.2996572460476430
  0.5632022406069900  0.5064509626722506  0.3082579963228690
  0.3165711615853974  0.3717048148381735  0.8142072006622986
  0.9077920201627484  0.1735432078856337  0.9439592314269359
  0.8926361141203905  0.0854622000356057  0.7325877725415872
  0.7288661958619104  0.8058778315944265  0.6037006994212869
  0.0518988078463556  0.1422603753611468  0.6060257175634496
  0.7048716636582743  0.5470031622049054  0.9611939395197375
  0.4284766714540155  0.7476175735885238  0.8274028701739652
  0.8714769357028979  0.9919791458933248  0.4998953742075527
  0.3617613768723949  0.7990586201418322  0.1549012403730779
  0.4765618370326846  0.5775315274463578  0.5105850454292526
  0.8638140941252922  0.6930800243013171  0.1884116702205879
  0.3003665004267100  0.1359302175383021  0.5820471776063841
