Sc Cl  C 
 1.0000000000000000
    13.7939866799999997    0.0000000000000000    0.0000000000000000
    -6.8969933399999999   11.9459428800000005    0.0000000000000000
     0.0000000000000000    0.0000000000000000   27.8102210700000008
 Sc  Cl  C  
  32  32  16
Cartesian
  0.1859205900000000  1.9946007299999999 15.1619926300000003
 -1.7953140500000000  4.9027505700000003 15.1310235300000002
 -3.3931410000000000  7.9752090400000002 15.1168013899999991
 -5.1680772800000003 10.8780013499999999 15.1254142700000003
  3.4826862500000000  1.9249379900000001 15.0688742300000005
  1.7210823799999999  4.9622836899999996 15.1385513100000004
  0.1835317800000000  7.9542484699999996 15.0689228699999997
 -1.7186176399999999 10.8535040499999997 15.1268908799999995
  7.0667693600000003  2.0401229999999999 15.0981418099999996
  5.2576054100000000  4.9768387199999999 15.3714300999999995
  3.5481420300000002  7.9303478299999997 15.1975846299999997
  1.6689636000000001 10.9599105100000003 15.1079793999999996
 10.4972828800000002  2.0656576300000000 15.2526869400000002
  8.4916648000000006  4.9455013699999997 15.1237367999999996
  7.0465837799999997  7.9595879299999996 15.1971301099999998
  5.2377201900000001 11.0101401600000006 15.0390114399999995
  1.7630437900000000  1.0559105300000000 12.6173565300000003
 -0.1192325300000000  4.0645599299999997 12.6428192799999994
 -1.7863813900000001  6.8042219599999996 12.7006845100000003
 -3.2774945299999998  9.9038845700000007 12.7644753299999998
  5.1906431800000004  0.9407892100000000 12.6956027900000006
  3.5008300299999999  3.9739712100000002 12.7553779499999997
  1.8183476300000001  6.9513167100000004 12.6415757299999996
 -0.0610074500000000  9.8884044899999992 12.5655473400000002
  8.6896356699999995  1.0009048500000000 12.6044908000000007
  6.8573305900000001  4.0342218699999997 12.6624163999999997
  5.2412954999999997  7.0323895099999998 12.6784391299999992
  3.4194706099999999  9.8209527399999992 12.6611360600000005
 11.9401782599999997  1.0140760499999999 12.6746490000000005
 10.2547925099999997  4.0687719700000002 12.7593119999999995
  8.5801590999999995  7.0165404400000000 12.6696606999999997
  6.9142427099999999  9.9755218100000000 12.7208125800000005
 -0.1000698600000000  1.8882829699999999 11.0553807299999995
 -1.9838446599999999  4.8716476100000001 11.0289762600000003
 -3.6701223000000001  7.9420955800000002 11.0718272800000008
 -5.2426045600000002 10.8468786900000005 10.8684594499999996
  3.4012993300000001  2.0430924500000001 10.9349322999999998
  1.5454590600000000  4.9553947999999997 10.8276278900000005
  0.0230616400000000  7.8673288799999996 11.0651739599999992
 -1.9156854800000001 10.9792898900000004 10.9496325599999995
  6.8254520300000001  2.2101793800000000 11.0383073500000002
  4.9637396100000002  4.9405415000000001 10.9781881899999991
  3.6127522500000002  8.0988605899999992 10.9213098100000003
  1.7901131699999999 11.0595863300000001 11.0346780500000001
 10.1388083099999999  2.1399184600000001 10.9463154599999992
  8.4356212300000006  5.1346293100000002 10.9809587200000003
  6.8640320299999997  7.9337562999999998 11.0015560000000008
  5.1206619699999996 10.9730319699999992 11.0093292700000003
  1.7881590300000001  1.0911952599999999 16.8265966200000001
  0.0635819800000000  3.9124616200000002 16.6178383499999995
 -1.7224556400000000  6.8815905300000004 16.7322436600000017
 -3.3240270199999999 10.0969392500000001 16.9144121100000007
  5.1552574800000004  0.9149637600000000 16.7537551200000010
  3.3473240500000001  3.8946307800000000 16.9912459799999986
  1.7780842600000000  7.0068256099999999 16.7034169100000014
  0.0305293300000000  9.9699844700000000 16.8404133700000003
  8.7630054099999999  0.9809368500000000 16.8281136400000015
  6.8878790600000004  3.7782560599999999 17.0062037900000007
  4.9931964500000001  6.9715188100000001 16.9128992199999999
  3.5546509899999998 10.0178396400000000 16.9519331999999991
 12.1650154900000000  1.0687524399999999 16.7487655699999998
 10.1308941800000003  4.0425578499999997 16.7219387200000007
  8.7838795399999992  7.1452469599999997 16.8473911299999983
  6.8906527100000003  9.9936197900000003 16.6799277400000001
  0.0545867200000000  0.0108887200000000 14.0109872600000003
 11.9432912000000009  3.1119114500000000 13.9391874599999994
 10.3031822799999997  5.9989748900000004 13.9260109300000003
 -5.0771598100000004  9.0662617399999998 13.9726648200000003
 -3.4085058400000001 11.9131087699999991 13.8090270299999993
  1.6815013900000000  2.9301668500000000 13.9275503000000000
  0.0672563800000000  5.9244766100000001 13.7205805600000001
 -1.6635165000000001  8.8325895200000009 13.9067958800000007
 -0.0591367600000000 11.8728548899999993 13.8643815600000000
  5.1789714299999998  2.9434112799999999 13.8748817100000004
  3.5509974999999998  5.9811319400000000 13.8691532500000001
  1.7672921500000001  8.8974816000000008 13.8158265900000004
  3.3910637399999999 11.8017226599999994 13.8265363099999998
  8.7571808699999991  2.8820800900000001 13.8222170500000008
  6.9312069400000000  5.8470838299999999 14.1449406300000007
  5.2534038900000004  8.9286363200000007 13.9014979600000004
