Sc  F  C 
 1.0000000000000000
    13.1286234000000004    0.0000000000000000    0.0000000000000000
    -6.5643117000000002   11.3697213799999997    0.0000000000000000
     0.0000000000000000    0.0000000000000000   26.8280942399999986
 Sc  F   C  
  32  32  16
Cartesian
  0.0805740600000000  1.8419000500000000 12.1775646599999998
 -1.6044855800000000  4.7986545400000002 12.2241651999999998
 -3.3198343900000000  7.5242200199999996 12.1791125400000002
 -5.0581259699999999 10.4086622799999997 12.1513229500000008
  3.4044063000000002  1.8190447300000001 11.8717238300000005
  1.5334385300000000  4.7040038500000003 11.9458243000000000
 -0.0397370500000000  7.5688818199999996 11.9514389199999993
 -1.6315320099999999 10.4803694899999993 11.9168813799999995
  6.7131911799999999  1.9686793400000000 12.1930376799999998
  5.0243672400000001  4.6622401299999998 12.0999232499999998
  3.1998953800000001  7.6810951400000000 12.1507802599999994
  1.4747121100000000 10.5333158099999995 12.1119102600000002
  9.9964413099999998  2.0220575599999999 12.1135108400000000
  8.2235103400000007  4.7749566600000000 12.1627180100000007
  6.3387015699999996  7.7031563900000002 12.2545206699999998
  4.6725100399999997 10.4543842799999993 12.2568695299999995
  1.6697163799999999  0.9342798900000000 14.5617280000000004
  0.1400040200000000  3.7129004700000001 14.6487253200000005
 -1.6664744600000001  6.6712948499999998 14.7411541699999997
 -3.3802322000000000  9.3404084699999999 14.6194016399999995
  4.9699902700000003  0.8054177000000000 14.6060443200000005
  3.2170994099999999  3.6897164299999998 14.6069666100000006
  1.7706805400000001  6.6619955700000002 14.6571937999999999
  0.0625120100000000  9.4478617400000005 14.7470576900000001
  8.2788524999999993  0.9959554100000000 14.7969121500000007
  6.5162873100000001  3.6540705899999999 14.6432031600000006
  4.8258565100000004  6.6795335700000003 14.8080295900000003
  3.2989998300000001  9.6153901000000008 14.9143992799999996
 11.3834956399999996  1.0972357699999999 14.7299035299999996
  9.9744790099999996  3.8623067600000001 14.8755291100000004
  8.0883902499999998  6.4707026299999999 14.6842236499999999
  6.5764290599999997  9.4831217300000006 14.8778258399999999
 -0.0172154500000000  1.8367138900000000 15.7964088999999994
 -1.4764943500000001  4.5712300099999998 15.8547815500000002
 -3.3799107600000000  7.2978707600000003 15.9593641999999996
 -4.9671261400000004 10.4632129400000000 15.8348068800000004
  3.1939615799999999  1.8775516900000000 15.6925922300000007
  1.7508169000000000  4.6888483900000004 15.7395995600000003
  0.0816975200000000  7.5958186000000003 15.7996041999999992
 -1.6714119900000000 10.1999107500000008 15.8941520900000004
  6.5246069599999998  1.8063380600000001 16.0578873500000014
  4.7804721600000004  4.5799600800000002 15.8778386900000008
  3.0444264900000002  7.4168175300000003 16.0954565999999986
  1.5343006600000000 10.4878433999999991 15.8419023800000005
  9.7151228100000004  1.9595455399999999 16.0046944199999999
  8.3216175000000003  4.8237727200000000 15.8241338700000007
  6.7754339100000003  7.6533822499999999 15.9835049199999997
  4.8157889500000000 10.4480036100000007 16.2277271399999989
  1.7131654199999999  0.9861372000000000 10.8392836399999997
 -0.0423077700000000  3.7528413000000000 10.9759937700000005
 -1.5583909000000000  6.8001458399999999 10.8422176100000005
 -3.2975393099999999  9.2181896600000002 10.9174392900000008
  4.7307319699999999  0.8827054300000000 10.6587300099999993
  3.4279086400000001  3.7130218300000002 10.7826692099999999
  1.7357363600000000  6.8171367099999998 10.8876860799999999
  0.1314341600000000  9.5573785800000000 10.8801329199999994
  8.2433554099999995  1.0706561500000000 11.1266607499999992
  6.9495786099999997  3.7708971800000000 10.9079572400000000
  4.8033659799999997  6.4954887200000000 11.0421014700000004
  3.2403030799999999  9.6438347199999992 10.9812297200000000
 11.6323976899999995  1.0204408000000000 10.9441544700000009
 10.1934658700000007  3.7906467600000000 10.8671028799999991
  8.3505589600000008  6.6565180100000001 11.0767681200000006
  6.4364592800000002  9.3999353400000007 11.0719146700000000
  0.0046029500000000  0.1070419400000000 13.5172516999999992
 -1.6754419800000000  2.9179203000000000 13.4442843199999995
 -3.2788164499999999  5.8058011699999996 13.3853550400000003
  8.1378539300000003  8.3932924999999994 13.5818198300000006
 -3.2363926900000002 11.1735254000000008 13.2031391500000002
  1.6700374099999999  2.9317620099999999 13.2821726099999999
 -0.0685494200000000  5.6729986900000000 13.2415108200000002
 -1.6252305000000000  8.4678914600000006 13.4186216900000002
  6.6391316199999997  0.0653273900000000 13.3357460400000001
  4.9429206199999998  2.5839791499999998 13.2907385300000005
  3.3899370599999998  5.7842564799999998 13.3783649199999992
  1.6650987600000000  8.5076915199999998 13.4366320500000000
  9.8597062500000003  0.1427954500000000 13.4834612099999998
  8.1860092400000006  2.9489980600000001 13.4334855999999991
  6.5249919900000002  5.8135218899999996 13.4070038999999994
  4.8308013100000000  8.7021580499999995 13.6139744599999997
