Sc Cl  C 
 1.0000000000000000
    13.7939866799999997    0.0000000000000000    0.0000000000000000
    -6.8969933399999999   11.9459428800000005    0.0000000000000000
     0.0000000000000000    0.0000000000000000   27.8102210700000008
 Sc  Cl  C  
  32  32  16
Cartesian
 -0.0112704900000000  1.9645782300000001 15.0417638500000006
 -1.6301481000000000  5.0305159799999997 15.1854765000000000
 -3.4412996599999999  7.8881949499999999 15.1496958700000004
 -5.2297637899999998 10.8440729800000000 15.1134424799999998
  3.3577889000000001  1.9627244500000001 15.1166189699999993
  1.7597003300000000  5.0332903199999999 15.1104973699999992
 -0.0268001700000000  7.9891036199999999 15.1072851700000008
 -1.7117087900000001 11.0053558700000007 15.2565653099999992
  6.8548649700000004  1.9816480999999999 15.1882305599999992
  5.0742244200000002  4.9748408499999996 15.0839977300000001
  3.4210410699999998  7.9919945600000002 15.0897967000000008
  1.7467419000000000 11.0817503500000001 15.2636268899999994
 10.4495532000000004  1.9622847699999999 15.1485905200000008
  8.8052971400000004  4.9462814200000000 15.3474821299999995
  6.8001666700000003  7.9494578499999999 15.0542073900000002
  5.1072609599999996 10.8271384200000007 15.0519402699999993
  1.6976746300000001  0.9275943500000000 12.6025151100000006
 -0.0408805800000000  4.0712927800000003 12.6653402400000008
 -1.7174888300000000  7.0591262700000001 12.5759239800000007
 -3.4630897799999998  9.9361537799999997 12.6216190200000007
  5.2530115799999999  1.0013021799999999 12.6832074600000002
  3.4459866799999999  4.0186290400000004 12.6567342499999995
  1.7701505399999999  6.9625558800000000 12.5608714500000005
  0.0186802900000000 10.0696257399999993 12.7454777400000001
  8.6882880500000006  1.1192947600000001 12.7083253900000006
  6.8739755000000002  4.0594883900000003 12.7925138199999999
  5.2064185900000002  6.8749753699999996 12.6833321500000000
  3.3297224200000000  9.9156337400000005 12.7205688299999995
 12.0715309899999994  1.0027887200000001 12.6267708299999999
 10.4120360000000005  4.0748844499999999 12.7504764200000000
  8.5861374399999999  6.9247333800000002 12.6724320699999993
  6.8593519799999996 10.0331160100000005 12.5731750000000009
  0.0660479200000000  1.9166906399999999 10.9749598000000006
 -1.6699508000000001  4.9440140399999999 10.9207626500000003
 -3.6067063600000000  7.9819889000000002 10.9966883800000002
 -5.1455433700000004 10.9345202300000004 10.9512114500000006
  3.4251771400000002  2.1219460799999998 10.9826022499999993
  1.6191570900000001  4.8979953299999996 11.0230252499999999
 -0.0160707000000000  7.9847954200000002 11.0400843500000008
 -1.7186578600000000 10.9351784999999992 11.1063372699999992
  6.8231833499999999  1.9085582100000000 11.0430210899999999
  5.2317850699999999  4.8832798400000001 11.0417270799999994
  3.5175610399999999  8.0055746200000009 11.0354735000000002
  1.8475757700000000 11.0684403699999994 10.9507231699999998
 10.3946976499999995  1.8974069700000000 10.8565843799999993
  8.7207968400000002  4.9499513700000000 11.1176172700000002
  6.7950085299999996  7.8917763000000001 10.9624616199999991
  5.1271218500000000 10.9586252599999998 10.9718561599999997
  1.6554119000000000  0.9272134700000000 16.8835307599999993
  0.0687860700000000  3.9592521399999998 16.6926680999999988
 -1.7071571600000000  7.0457449800000003 16.8424755700000013
 -3.5215865300000000 10.0243283099999996 16.7943372800000006
  5.0492382500000001  1.0332096099999999 16.7731671999999996
  3.5263288400000001  3.9464900200000002 16.8325971999999986
  1.6886313200000000  7.0403279000000003 16.7630438499999990
  0.0906590500000000  9.9263133499999991 16.8684188000000006
  8.7275537199999995  0.9669606800000000 16.9497529299999989
  6.8352097499999998  3.9340120700000001 16.8950791699999989
  5.0987892900000000  6.8593578099999997 16.7981531400000001
  3.5891519800000000  9.9482251700000006 16.7865842799999996
 12.1628491699999994  0.9263504200000000 16.6532206000000009
 10.4290814699999999  3.9205592700000000 16.8994540600000001
  8.5532326300000001  6.9194114000000004 16.7991028900000003
  6.8866045700000003  9.9617341800000005 16.7564041099999983
  6.8164214300000001 11.9069993600000004 13.7555423599999997
 12.0421194000000007  3.0101249200000000 13.9196707499999999
 -3.4322861800000002  6.0039135000000003 13.9480266200000003
  8.5317514299999999  8.9340161600000005 13.8470320999999998
  3.4084600699999998  0.1083133700000000 13.8914688000000002
  1.7315228000000000  3.0030714700000001 13.8378551099999996
 -0.0971351400000000  6.0658730500000004 13.8642163200000006
 -1.7784120600000000  8.9877610499999996 13.9127829999999992
 -0.0200492500000000 11.8782880899999999 14.0664700699999994
  5.2506051100000004  2.9760977099999999 13.9848750899999992
  3.3405266299999998  5.9764165800000004 13.7932334099999991
  1.7807305400000000  8.9497878199999992 13.9537994899999998
 10.3331339700000004  0.0626949100000000 13.9965908799999994
  8.6520303900000002  3.0396992200000001 14.0223985800000008
  6.8540907899999999  5.9759033099999996 13.9039636400000006
  5.1195390500000002  8.9006038099999998 13.8413337399999996
