Sc Cl  C 
 1.0000000000000000
    13.7939866799999997    0.0000000000000000    0.0000000000000000
    -6.8969933399999999   11.9459428800000005    0.0000000000000000
     0.0000000000000000    0.0000000000000000   27.8102210700000008
 Sc  Cl  C  
  32  32  16
Cartesian
 -0.0884052800000000  1.8990831100000001 15.1870533400000003
 -1.6816789599999999  5.1010536799999997 15.2530769599999996
 -3.5353479100000000  8.0645713899999993 15.1225848900000006
 -5.1373987899999998 10.9442885099999998 15.0842971600000002
  3.4924082200000002  2.0681370200000000 15.1090783900000005
  1.7242666300000000  5.0100314499999996 15.1607494400000000
  0.1148713500000000  7.9984078500000004 15.0767146200000006
 -1.6850842300000000 10.9691811700000006 15.1850243700000007
  6.9574103400000000  1.9911096600000000 15.0853935400000001
  5.0939523299999996  5.0384107599999997 15.0643569599999996
  3.3506882099999999  7.9510658300000001 15.1154428999999997
  1.6355077899999999 10.9967179399999999 15.1420993799999994
 10.4190206900000000  1.9136434000000000 15.1013168499999999
  8.5601342000000002  4.9502964199999999 15.2369718499999998
  6.8258007699999999  7.9793209799999998 15.1562838699999993
  5.1929589500000004 10.7284880699999992 15.1659860299999991
  1.6988727299999999  1.0343865800000001 12.6763580999999999
  0.0287840500000000  4.0407023700000000 12.7774095600000006
 -1.7273120500000001  7.0867660199999998 12.6758111299999996
 -3.4934346100000000  9.9980427200000008 12.6153071200000007
  5.1650124799999997  1.0449279800000000 12.6243332699999993
  3.3741531000000000  4.0134145300000004 12.5841454699999993
  1.7374407700000001  7.0215127600000002 12.6574128699999999
  0.0394867600000000  9.9728985100000003 12.6993130999999995
  8.5680118600000004  0.9522586100000000 12.6483143400000007
  6.8834500099999998  4.0393229899999996 12.6648912899999999
  5.1109703800000004  6.8972147799999997 12.5071885199999997
  3.4618075899999998  9.8959244200000001 12.7353402399999993
 12.0999524300000001  0.9760102400000000 12.6541438300000006
 10.3217066499999994  3.9829590399999999 12.6897226700000001
  8.6830800799999999  6.9559342099999997 12.7057027999999992
  6.9077875799999999  9.9236168300000003 12.6376216800000005
  0.0512870100000000  1.9620790500000000 11.0546795699999993
 -1.6681561700000000  4.9552299099999999 11.1026702000000004
 -3.5261155700000000  7.8085921799999998 11.0970175999999991
 -5.2458738699999996 10.8407769300000005 10.9274956200000002
  3.5045584999999999  2.0064797799999998 10.9695553700000001
  1.6693214800000000  5.0160655700000003 11.0780918600000007
 -0.0591374100000000  8.0197415000000003 11.0361567699999998
 -1.6912549500000000 11.0260797999999998 10.9511012799999996
  6.8928646699999998  1.9709860299999999 10.9999127399999992
  4.9853723199999997  4.9684996300000002 10.9916869399999992
  3.3443106700000000  8.0946566600000001 10.9508737400000005
  1.7546396799999999 10.9233111800000007 11.0650673000000008
 10.3564398200000003  1.9322431799999999 10.8844998200000003
  8.5973772700000008  4.9478268900000000 10.9984085100000009
  6.9863465099999997  7.8766990799999999 10.9650341499999993
  5.1478885200000004 10.9954829899999993 11.0046919899999995
  1.8102889200000001  0.8212164300000000 16.8086105400000001
  0.1243143100000000  3.8655018399999999 16.7776764500000013
 -1.6744747400000000  6.9524483100000003 16.8533455399999994
 -3.2980235900000001  9.9439886099999999 16.9228051899999983
  5.3064214400000003  1.0941293000000001 16.6737027100000006
  3.5801421699999998  3.9567548800000001 16.7322611899999991
  1.7977921500000000  6.9150527200000003 16.7262109800000012
 -0.0051619500000000 10.0579356700000009 16.7900418400000007
  8.6398279500000008  1.0069685799999999 16.8166960600000017
  6.8099049500000000  4.0379285800000000 16.8172986199999990
  5.0770216399999999  7.0288231000000003 16.7941115299999986
  3.3689946900000001 10.0222478400000004 16.8933266599999996
 12.0878254799999993  0.9897430500000000 16.8447193999999989
 10.2810656599999994  3.9415118900000001 16.9647971200000001
  8.6739469400000004  6.9429125899999997 16.8851454399999987
  6.9115179400000004  9.9005851400000005 16.7740928800000013
  6.9391873000000004 11.8222209500000002 13.8569579699999998
 12.0441806299999996  2.8902902600000000 13.8966262999999994
 -3.3823522200000000  5.9163820500000002 13.9795549799999996
  8.6382679699999994  8.8953667200000002 13.8983182000000003
  3.4756189200000001  0.0120105800000000 13.8909391600000003
  1.7519045200000001  3.0259289300000001 13.9725384800000008
  0.0332063500000000  6.0105927899999996 14.0349450600000001
 -1.7042838899999999  8.9365675400000004 13.8900007700000003
  6.9124141799999999  0.0269985200000000 13.8546568600000004
  5.2396881200000003  3.0237832000000000 13.8941709200000005
  3.4723661400000001  5.9453386100000003 13.8511849799999993
  1.7309499800000001  8.8786550000000002 13.8928295500000001
  3.4486379100000000 11.8696210799999999 13.9573709400000006
  8.6494064099999992  2.9871455000000000 13.8803539699999998
  6.7868595799999998  6.0928322599999998 13.9082243699999992
  5.1743772500000000  9.0162612499999994 13.8816616899999996
