Ca Si  O 
 1.0000000000000000
    12.9304129900000007    0.0000000000000000    0.0000000000000000
     0.0000000000000000   12.9304129900000007    0.0000000000000000
     0.0000000000000000    0.0000000000000000   12.9304129900000007
 Ca  Si  O  
  27  27  81
Direct
  0.4690545332690105  0.9994796585379598  0.7356671327788734
  0.2012077496683267  0.7812678502854223  0.9152603601410569
  0.0778720340006712  0.2234510987572099  0.5044477183400465
  0.7888870632275141  0.3644924816898675  0.9639434122977691
  0.9919877392872042  0.1435157803107416  0.9540742673525388
  0.0658049716322325  0.4678550642333351  0.2927563089382809
  0.6631516840669758  0.1599759220064942  0.5688936753751745
  0.9188769731630977  0.8154166930440788  0.0644279081143254
  0.3379069170782920  0.2975462580333252  0.3464538815167419
  0.5312787731770662  0.2723465099470114  0.9394478373888350
  0.2412415730582168  0.2616833439594569  0.0181185589494462
  0.9144836865724889  0.4786134769853163  0.7467285288928733
  0.6814377968294112  0.6921278753371047  0.6661400874559382
  0.9633033105464638  0.7160137891311080  0.4564321328765230
  0.5784254668264853  0.0154456450969088  0.0715162779963148
  0.8111295569686209  0.4602025437704136  0.2723907065245253
  0.0569257440245147  0.0855343631216840  0.2206981897799384
  0.9348241459378166  0.5772222740118372  0.0237823393759985
  0.4392964806609785  0.8375478245262142  0.5247539251257898
  0.1638562992255981  0.8307637666567678  0.1910985590259944
  0.8136501856620125  0.9367108188552915  0.2861578027601731
  0.3636807914516580  0.6028396174219954  0.2443706308873279
  0.5392573443240037  0.0585717981773450  0.4080570090128265
  0.1735293081307838  0.5943951949519286  0.0843833588953295
  0.3499287581533001  0.2784826163545454  0.7215290654069046
  0.3669108189869193  0.5331725750238392  0.8336859208083189
  0.3439175402548376  0.4997709326838756  0.5937650000767687
  0.5467292023439074  0.8261145446986995  0.2647226946770553
  0.2443566274676274  0.0691952036405915  0.2928791928710082
  0.1494537546089624  0.3621310737422935  0.8243989598974132
  0.3968158143106610  0.9017871323226776  0.9727247157323781
  0.8832985496157767  0.9790557509486013  0.6129920564896048
  0.8143899485765768  0.1237040681714529  0.1131363129028719
  0.8960781669511083  0.8104348645402392  0.8437495359535302
  0.1781590929679965  0.6895522607743095  0.4461555237610396
  0.5857413584436486  0.8015785874755730  0.8653465476047413
  0.5073543911608658  0.3312220006671264  0.5202342303530708
  0.8418839667703453  0.1725217679996159  0.6726663051463757
  0.9585469373318137  0.4686414521087930  0.5361272950339074
  0.1668602690160479  0.8752921139296108  0.5452724600098020
  0.6626545174254329  0.3241933612825772  0.7378864114687492
  0.8058974487558112  0.7293146164235548  0.2532146144544761
  0.7209868963357836  0.6295495941464125  0.9634736577737104
  0.6960336229755644  0.8446662816142579  0.4522723616424876
  0.6584149328087315  0.5019867745152353  0.1257981142023833
  0.0321065058263077  0.1957358996930229  0.7509642698581741
  0.3407316219062234  0.7624524187761461  0.7136353214036050
  0.9362278002537334  0.2999414901132249  0.1617294205233270
  0.6298062209071019  0.5080667891335464  0.4983641361636044
  0.0614820942389714  0.9407481446576750  0.3643606429000842
  0.6922880102068572  0.1881627602986562  0.2660391847236737
  0.3087789054446899  0.0806116185775440  0.5870112219826321
  0.3432903854991255  0.0629475130167517  0.1363654843324536
  0.3276810054927720  0.4593265508683493  0.0932910264299300
  0.8693264715282694  0.6198044390537290  0.2877216862970438
  0.7414851967539515  0.5080120298617005  0.4708899224416807
  0.2319544799009548  0.2531900769551522  0.4960830930118652
  0.7815006363536112  0.2902940496102437  0.6500107874744687
  0.0558583357359570  0.6961333699829491  0.0716484617093425
  0.5725442409090445  0.3154310224394465  0.6292559693408524
  0.9828344013318324  0.3297584503524817  0.8421928370286339
  0.3559081634561155  0.6482811281033956  0.6834473645068005
  0.1475710560425031  0.4173121426340459  0.9336759010974173
  0.1137033605297088  0.1706736638425034  0.0925162344717963
  0.3785854576946502  0.1216214169815159  0.0371632847590895
  0.7858276311714310  0.7896027031693439  0.1582396704252522
  0.9524039920089203  0.0188083273278342  0.3473368471272626
  0.9335549258430917  0.9238591937657824  0.8350273474134410
  0.5960730957287080  0.1494661826729480  0.2235427470286856
  0.7873681225706929  0.5325229925235357  0.0827034937574720
  0.4537470469456366  0.4317071058996392  0.7766622239959869
  0.3721882289236919  0.0583851127248489  0.4948099503819483
  0.8023946464837547  0.0959788191575774  0.5972413252362793
  0.8870189505060813  0.5403987316881516  0.5932354400383308
  0.0206010055677270  0.3744874207610286  0.6008638661432267
  0.2260345127615294  0.9597017890764213  0.3538034325383137
  0.7424744474460904  0.7888297657536767  0.3320089391823826
  0.0466229632778342  0.0925171253946159  0.8133189997978557
  0.8138638107026155  0.1031893808056938  0.2357163226230410
  0.3887143097352840  0.3584539042631151  0.5242230952129859
  0.1617597273666044  0.2520259934868484  0.8045599400456582
  0.6453075100117124  0.9145487796209980  0.1777899268784299
  0.9254702165549314  0.7093674878825351  0.9077393211707463
  0.8886105400412272  0.2401868689269143  0.0531947572387632
  0.7054968110496523  0.1131838589480350  0.0353841722111925
  0.3768718171468087  0.5883646791393010  0.0644883764072256
  0.9630446204332719  0.9185844217957959  0.6616892365786686
  0.4236684167966394  0.9806317887762995  0.2004724297673032
  0.9452468076195608  0.4356217774603346  0.1344467884625547
  0.9105025832589434  0.0303447237380157  0.0774234226527980
  0.6191132832486582  0.8873506003925400  0.9397012353276737
  0.7059400320051185  0.4135966951818141  0.8248007467548026
  0.8216992572640172  0.5036816685620805  0.9125616420083114
  0.6508063181360149  0.9585323036151531  0.3932581908971184
  0.2089958845158278  0.7833022222749593  0.7038447184199335
  0.0642239772729796  0.6337190209111797  0.4026681958284458
  0.8694057760331443  0.1836563698187029  0.7841975780543108
  0.5373302604776276  0.4481959334540945  0.4207108407293030
  0.2899779328703406  0.9208074582929465  0.5554410547872222
  0.6774367250894744  0.1629834910632657  0.3987721671370993
  0.8057668233843472  0.2846583448530672  0.2215991865237399
  0.2299215216326977  0.6767034082180542  0.2604022054519080
  0.8208058341375529  0.7892279340104821  0.7485495751361921
  0.4621659025602399  0.8166319999342881  0.3574010825156173
  0.2728820659269600  0.6253814434429754  0.5169801254739350
  0.4694997727214898  0.7742029297704589  0.8952828891817166
  0.4495026024686934  0.9933224112743517  0.9147470153619587
  0.2971904202110098  0.1606194165341969  0.2253569195549724
  0.2381751435458211  0.8011269607561080  0.4332842357264878
  0.2163383097015836  0.4065903536156118  0.7185326630468282
  0.6085845066268065  0.8239134324819427  0.7508885708065849
  0.6037532773344156  0.5159140736772400  0.2464928384317599
  0.6358911812297806  0.5645561565315479  0.0060076998360437
  0.9776100902404355  0.1776247913950040  0.6441912138801685
  0.6203770317470734  0.2069145990981994  0.7845255644846963
  0.5820350769786201  0.6078914545172620  0.5827893715249384
  0.3765898215135045  0.8641366891097266  0.7874707743576873
  0.6150113377005137  0.4005877943733026  0.0694341704858415
  0.6420853971501802  0.6768951801283495  0.8938096369341100
  0.0371455374527832  0.2715611576146571  0.2436948264867447
  0.5021371061404899  0.2114957342905410  0.4705106569067133
  0.4207236268638315  0.3862644065477757  0.0302381300815667
  0.6030623806084635  0.7950892495043191  0.5152144394113433
  0.2687586817750978  0.9424928058697682  0.9947960556208034
  0.3343942844937700  0.1145675440641900  0.6992159041627022
  0.3765975010826007  0.4303400474759314  0.2304411546873570
  0.3005704545559144  0.6834414559561566  0.8538363800551740
  0.1458138523075898  0.1531688215629066  0.3620656829461408
  0.0745449523341172  0.9629149726021241  0.5061929108576755
  0.2047847939619444  0.4063786511740798  0.1455699877069433
  0.0579229789937282  0.8302193463041122  0.3091852064657062
  0.2122488293392089  0.9936721804583288  0.1762566572129264
  0.9242331075768678  0.4539463630851902  0.3916676307181121
  0.1033335355207398  0.7564637809762641  0.5399550822854267
  0.7891412708852698  0.9015881904944476  0.5285040311771202
