Sc  F  C 
 1.0000000000000000
    13.1286234000000004    0.0000000000000000    0.0000000000000000
    -6.5643117000000002   11.3697213799999997    0.0000000000000000
     0.0000000000000000    0.0000000000000000   26.8280942399999986
 Sc  F   C  
  32  32  16
Cartesian
  0.0086741200000000  1.7892441400000001 11.9628347799999997
 -1.5221191999999999  4.6606857599999998 12.0557160000000003
 -3.3042663000000001  7.5829175199999996 12.1871972599999996
 -4.8433850300000003 10.4347650699999992 12.1514577799999994
  3.2218555599999998  1.9234901700000000 12.0790139500000002
  1.6304745700000001  4.7546055999999997 12.1314939299999995
  0.0411285000000000  7.5984921800000000 12.0748436800000007
 -1.6259193000000001 10.4977000300000007 12.1415187299999996
  6.6959371200000000  1.9405909400000001 12.1140694000000000
  4.9042661200000000  4.7998729100000004 12.2549894300000002
  3.3713902899999999  7.6423361900000000 12.2527395499999994
  1.6963619599999999 10.4092699100000008 12.1626090700000002
  9.9188836800000004  1.9530376599999999 11.9973906600000007
  8.1501047900000003  4.7947243400000001 12.2672083000000001
  6.5043441499999997  7.5774578300000002 12.2902574900000001
  4.9137266400000001 10.4048760700000003 12.0086514100000006
  1.4943329900000000  0.9600134400000000 14.5845522299999999
 -0.0091519900000000  3.7436726000000000 14.5446438699999998
 -1.6044812399999999  6.6260699900000004 14.5833751700000001
 -3.2375933899999998  9.4359085500000006 14.7029679499999997
  4.8271187800000002  0.9683676200000000 14.6591354700000007
  3.3977672399999999  3.8465174800000002 14.7044865900000001
  1.6128892399999999  6.5910610900000002 14.6555688699999997
 -0.0545462500000000  9.4403023499999996 14.9184762099999997
  8.1601136400000005  0.9552417700000000 14.6178795200000007
  6.6519844199999998  3.7351719700000001 14.7919701799999999
  4.8210518000000002  6.5686072500000003 14.9153845399999998
  3.2680968699999999  9.4784768499999998 14.7636308900000000
 11.4142104799999995  0.8880048000000000 14.5910463999999997
  9.9476732800000001  3.8664741100000000 14.7889632500000001
  8.2436730100000002  6.6836426299999996 14.8157394399999998
  6.5148659499999999  9.5375597899999995 14.5409605299999996
 -0.1628904400000000  1.9078575799999999 15.6404274300000008
 -1.3851911200000000  4.6042063899999999 15.8352329699999999
 -3.2611056899999999  7.6706842000000002 15.8357791900000002
 -5.0452280399999996 10.2829542299999996 15.7847404900000008
  3.1281248300000000  1.9071000600000001 15.7904286799999998
  1.6556617000000000  4.6942209300000002 15.6435113200000000
 -0.1354931500000000  7.4410898599999999 15.7889088399999995
 -1.7838599300000000 10.4761915499999994 15.7749023400000006
  6.4906678700000002  1.7629119200000001 15.8966864099999992
  4.9677077599999997  4.6075936999999998 16.0183274199999985
  3.2428228600000000  7.5981229199999998 15.8972420499999991
  1.4974111999999999 10.5094781699999995 15.8820721200000001
  9.8774665600000002  1.8311378199999999 15.7059235699999995
  8.2869179299999995  4.7852594200000000 15.9736932899999999
  6.5184284899999998  7.6475394600000000 15.9204529299999997
  4.9701762900000004 10.4677487599999992 15.8057358099999998
  1.6813720700000001  0.8849351900000000 10.8568354399999993
  0.0642489100000000  3.8762739499999999 10.9202074699999994
 -1.5469567700000000  6.7124883200000003 10.9841241000000007
 -3.1817641200000000  9.3247536699999998 11.1307729000000002
  4.8979346300000000  0.9011663400000000 10.9442095800000008
  3.2289826800000001  3.6561022500000000 10.9157901600000002
  1.7080453400000000  6.8126490799999999 11.0419355299999999
  0.1025107500000000  9.5817817499999993 11.0696482199999995
  8.1316348200000004  0.8408273600000000 11.0710696500000001
  6.5446627700000004  3.8733480800000000 11.0664889300000002
  5.0001965799999999  6.5211817200000004 11.1802021299999996
  3.4232831799999999  9.4810447100000008 10.9092896100000001
 11.4655410100000008  0.7931263900000000 10.7899010400000002
  9.9275537400000005  3.9576350699999998 10.9405011299999995
  8.0819036200000003  6.6240291300000003 11.1938634799999992
  6.5448589000000004  9.4285311200000006 10.9715255700000007
 12.9973826900000002  0.0240322400000000 13.2665124300000006
 11.4216241000000007  2.9097156700000002 13.2457717200000005
  9.7714788699999993  5.7506729999999999 13.4653392699999994
  8.1500431399999993  8.5369363600000003 13.4501252499999993
 -3.3276289299999999 11.3032526900000008 13.3668841100000009
  1.4974804399999999  2.7855343299999999 13.2310736700000007
  0.0078560700000000  5.6697885699999997 13.3751628799999995
 -1.5599981000000001  8.5582092799999998 13.4638389600000004
  0.0291388300000000 11.3502962400000005 13.4708948900000003
  4.8468359400000001  2.8071779100000001 13.3774322800000007
  3.3199891400000001  5.7252800199999996 13.4902826699999991
  1.7237777299999999  8.5017557600000000 13.4561987900000002
  9.7637261899999999  0.0234029500000000 13.3591187199999997
  8.2298837000000002  2.8929493900000001 13.3728068100000002
  6.6047401099999998  5.6585369700000001 13.6301225600000002
  4.7675771200000003  8.5246736599999995 13.4831003799999998
