Sc Cl  C 
 1.0000000000000000
    13.7939866799999997    0.0000000000000000    0.0000000000000000
    -6.8969933399999999   11.9459428800000005    0.0000000000000000
     0.0000000000000000    0.0000000000000000   27.8102210700000008
 Sc  Cl  C  
  32  32  16
Cartesian
  0.0492074700000000  1.9758260000000001 15.1926711300000008
 -1.7654232000000001  5.0222690200000004 15.1129663900000004
 -3.3070197800000001  7.8508152700000000 15.1146765199999997
 -5.0461303199999996 11.0122023900000006 15.0288141799999995
  3.4671218900000000  2.0614233099999999 15.2595548500000007
  1.6628882599999999  4.8893787199999998 15.1830405899999992
  0.1230058000000000  7.8225632699999998 15.1713514400000005
 -1.6703665500000000 10.8674669599999998 15.2590805899999999
  6.8215098899999997  1.9558867600000001 15.1335548400000004
  5.1981830400000000  5.0256266299999997 15.1724019400000003
  3.6219198399999999  7.9998162099999996 15.1554741199999992
  1.7681534200000000 11.0195471200000004 15.0499470300000002
 10.4073330700000000  1.9627214500000001 14.9911305400000003
  8.7078803300000001  4.8989856400000003 15.0797737900000008
  6.9575493799999997  7.9362580899999999 15.2030981199999999
  5.3046423300000001 10.9257326999999993 15.3142938100000006
  1.7740492800000001  0.9975410800000000 12.8415820699999994
 -0.0195953000000000  4.0518737800000002 12.6495469400000005
 -1.7636109799999999  7.0732102899999996 12.6480807500000001
 -3.4414972100000001 10.0211368899999993 12.6570355200000009
  5.0523669099999999  0.9387808100000000 12.7377876499999996
  3.3014897300000001  3.9010395099999999 12.6646917299999995
  1.6921990099999999  7.0629630099999998 12.6537272299999994
  0.0145475300000000 10.0682007999999996 12.8642806000000007
  8.5496193399999996  0.9694428300000000 12.4225846499999992
  6.7686713999999997  4.0162892499999998 12.6853686400000001
  5.0877140000000001  6.9034268699999997 12.6376901499999992
  3.4463804200000001  9.9870809600000001 12.7279315999999998
 12.0979113500000004  0.9495205100000000 12.5834375299999994
 10.1717392800000006  4.0288073999999998 12.4479617499999993
  8.5415463900000006  6.9839655900000004 12.7164863199999996
  6.8906447000000002  9.9045425199999997 12.7424642000000006
 -0.0026913700000000  2.0679869800000001 11.0390227799999998
 -1.7366862500000000  5.0945330599999998 11.0508078699999999
 -3.4727709999999998  8.1058729500000002 10.9192648200000004
 -5.3701449400000003 10.9053896199999993 10.9819675799999992
  3.4011475099999999  1.9869698000000000 11.0234010199999997
  1.7123763800000000  5.0323520500000001 10.8762499300000002
 -0.0905070100000000  8.0035769499999994 11.1231850300000001
 -1.8302309299999999 10.9728332799999997 10.9596087799999999
  6.8740981200000002  2.0033047000000002 10.7454736999999998
  5.1759417799999996  5.0320643000000000 10.9797229900000008
  3.3989864200000000  7.7594386399999999 10.8956903799999996
  1.7238283700000001 10.8364867399999998 10.8108094700000006
 10.5607486399999999  2.1457607099999998 10.7971300899999996
  8.5642869299999997  4.8983973000000001 10.9434583199999995
  6.9785791200000000  7.8901232800000001 11.0052662199999993
  5.1926593199999997 10.8260190900000008 11.0837223300000005
  1.8046554299999999  0.8611830900000000 16.8796150400000009
  0.0662449300000000  3.8228679200000002 16.8621100900000016
 -1.8063786399999999  6.8683764399999996 16.9163942899999995
 -3.3559578999999999  9.9784128699999997 16.8688129099999991
  5.1150897500000001  1.0646282000000000 16.6863754799999988
  3.4227913000000001  4.0752095600000002 16.8316492999999987
  1.7537167499999999  7.0050036699999998 16.8827969799999984
  0.2839105900000000  9.9340673600000002 16.8416967100000008
  8.3752729699999993  1.0330237400000000 16.8021523100000003
  6.7879985600000001  3.9371565700000000 16.8802314500000001
  5.1323161700000002  6.8913102999999998 16.8430164799999993
  3.5963768599999999 10.0562887799999992 16.8948203700000015
 12.1337219699999999  1.0487524800000001 16.7759391200000003
 10.2491242099999997  4.0880041900000004 16.7967770799999983
  8.5728765399999993  7.0534980400000000 16.8156320400000006
  6.8868136700000004  9.9311995100000008 16.8339284999999990
  0.0796043400000000  0.0373204100000000 13.8155304999999995
 11.9840825700000000  3.0521528800000000 14.1057663000000009
 -3.3468339299999998  5.9468738999999999 14.0359880399999994
  8.6143558599999999  8.9390597100000004 13.8794736899999993
 -3.4034019999999998 11.8859599399999993 13.9337497199999998
  1.6683983700000000  2.9025623500000002 13.9923142800000004
  0.0875792900000000  6.0799824500000001 13.9669039500000007
 -1.6574018100000001  8.9081700300000008 13.9676053099999997
  6.9707203399999997  0.1574490100000000 13.8271546099999991
  5.0215017199999998  2.9996664800000001 13.9778476400000002
  3.4928837000000001  5.8916794499999998 13.7788153399999995
  1.6674854100000001  8.9839403299999994 13.9281670099999992
  3.5129615300000001 11.8760084799999994 13.8884975599999994
  8.6047514899999999  3.1012679799999998 13.7502325600000006
  7.0101375700000004  5.8278004200000000 14.0544735400000000
  5.1959307800000003  8.9462030099999996 13.9942184300000001
