Sc  F  C 
 1.0000000000000000
    13.1286234000000004    0.0000000000000000    0.0000000000000000
    -6.5643117000000002   11.3697213799999997    0.0000000000000000
     0.0000000000000000    0.0000000000000000   26.8280942399999986
 Sc  F   C  
  32  32  16
Cartesian
 -0.0855441000000000  1.7723699399999999 12.0847293899999997
 -1.5953744900000000  4.8311363399999996 12.1209047900000009
 -3.2468053299999999  7.6293288700000002 12.1315474800000000
 -5.0168799799999997 10.4554101100000008 12.1223072599999995
  3.1996693899999999  1.8335789000000000 12.1737360999999993
  1.6738757099999999  4.6980577500000003 12.3007651199999994
 -0.0473953900000000  7.6321749399999996 12.0894497500000000
 -1.6360633499999999 10.3609451200000002 12.1324422199999997
  6.5350655099999999  1.9317323399999999 12.0130248000000002
  4.8553189999999997  4.6941143500000004 12.2230130100000007
  3.2426876600000001  7.5118650499999999 12.1472400700000005
  1.6805628800000001 10.5068302399999993 12.0703472000000005
  9.8354936899999998  1.9975454699999999 12.1869852499999993
  8.2628784000000000  4.7209730800000003 12.2753043999999996
  6.5943174300000003  7.5301172899999997 12.1217583300000005
  4.8836502599999996 10.4025178000000000 12.0460480400000005
  1.6327915500000001  1.0441632300000001 14.6108551599999998
  0.0652105100000000  3.7226725500000000 14.6459897100000003
 -1.6536057500000001  6.5417537499999998 14.7743481800000005
 -3.2719373599999999  9.4978047599999993 14.7075353799999995
  4.9270201900000004  0.8685221900000000 14.5851895099999993
  3.3662239000000000  3.7715327599999999 14.7369589699999999
  1.6628278900000000  6.5569815000000000 14.6860009700000003
  0.0304325500000000  9.5246608599999991 14.6437679400000000
  8.1611378999999999  0.8923842000000000 14.5937362499999992
  6.6586379000000004  3.7725626900000000 14.6890772399999996
  4.9382697599999998  6.7122971800000002 14.7312292700000000
  3.3061436300000002  9.5814314700000001 14.5821776599999993
 11.4699549600000008  0.9584072900000000 14.6508927399999997
  9.8477517399999996  3.7732231000000001 14.8149775699999999
  8.1171199400000003  6.5170496699999996 14.7290659500000007
  6.6214395200000000  9.4984823100000000 14.5318460100000006
  0.0489404400000000  1.8687128900000001 15.8870225699999992
 -1.6230824300000000  4.5826921100000000 15.8106819400000003
 -3.2346257500000002  7.6664014900000002 15.8974738099999993
 -4.9609117800000000 10.2373126600000006 15.7347789000000002
  3.4472113900000001  1.6945540500000000 15.7330323900000000
  1.5642900300000000  4.9421432699999999 15.9978252600000008
 -0.0018822300000000  7.6729863900000002 15.9224077600000005
 -1.7134196600000000 10.2977549400000008 15.7560247199999992
  6.5253739099999999  1.8362949799999999 15.8490442700000003
  4.8028971800000004  4.8145450500000004 15.8803725900000003
  3.1581293300000000  7.7768506100000003 15.7254013500000003
  1.6116922499999999 10.5583997499999995 15.8325710100000006
  9.9252168500000000  1.9110010200000001 15.8467941400000001
  8.2710024999999998  4.6932823499999996 15.9456234099999996
  6.6671346199999997  7.4046578399999996 15.8259219400000006
  5.0395783300000003 10.5252295500000006 15.8500253200000003
  1.6482673699999999  1.1305073800000001 10.9633059500000005
 -0.0481260200000000  3.6949551899999999 11.1487319500000002
 -1.7283673600000000  6.7555809699999996 10.9590555599999995
 -3.4241905899999998  9.5511427700000002 10.8438029300000007
  4.8911626200000002  1.0669347600000001 10.9156167499999999
  3.1184003699999998  3.8499986700000002 11.1143994199999998
  1.6618504999999999  6.5636849000000002 11.0480803000000005
 -0.0791035300000000  9.5700226799999992 10.9739069400000009
  8.3763175200000006  0.9814890500000000 10.9349131899999996
  6.5777062500000003  3.8360809800000002 11.1157564299999994
  5.0413319200000002  6.6512912899999996 11.0326214199999999
  3.3180883400000001  9.4763878500000001 11.0366819300000003
 11.3870015500000008  0.9143338600000001 10.9595683899999994
  9.9571382600000007  3.7556265899999999 11.0804734200000006
  8.1783284100000007  6.5558452500000000 11.0100761400000007
  6.5344593199999998  9.4056073199999997 11.1642511300000002
  0.0286333200000000  0.0757885500000000 13.3270648400000002
 -1.5159412299999999  2.8568233099999998 13.4351734399999998
 -3.2359876800000000  5.6166165200000000 13.5376908999999994
 -4.8950345400000002  8.4931411499999996 13.3609351099999998
 -3.2879472100000000 11.3276834199999996 13.3651482999999995
  1.7599033300000000  2.9288842900000001 13.5876755100000004
 -0.0675428200000000  5.7755653499999999 13.4195779900000005
 -1.7305830000000000  8.5178848800000004 13.4258591400000000
  0.0137409800000000 11.2988653100000001 13.3552306800000000
  4.9240694300000003  2.7683279000000001 13.3473452100000003
  3.2776798600000001  5.7131216800000004 13.4473064000000004
  1.6051203400000000  8.5920128699999996 13.4123457100000003
  9.7896607099999997  0.0450133600000000 13.3832660299999997
  8.2999702800000001  2.8672951800000002 13.4975084100000000
  6.5718117500000002  5.6235533899999997 13.4393262599999996
  4.9167206800000001  8.5875334100000007 13.5273110699999997
