Ca Si  O 
 1.0000000000000000
    10.5648966099999999    0.0000000000000000    0.0000000000000000
     0.0000000000000000   10.5648966099999999    0.0000000000000000
     0.0000000000000000    0.0000000000000000   10.5648966099999999
 Ca  Si  O  
  27  27  81
Direct
  0.1562973998663675  0.9750373439764312  0.1198893180649877
  0.0578105581669294  0.0591773372782680  0.6017784882042495
  0.1580903402707317  0.3431016340064307  0.8097028220704944
  0.4882832270329241  0.3138979672419151  0.0940798690882788
  0.3007598348849341  0.8782907455258098  0.6461062556484404
  0.4061641971903784  0.0693178435183948  0.9185587013520240
  0.7373131122387766  0.1011262021238086  0.2217024838447520
  0.1336199512509948  0.6487387205959605  0.4190367661345245
  0.9513310466745779  0.8888567410220970  0.3403789287058627
  0.8027569907283740  0.6122893918220749  0.1139145856724101
  0.4277754631050762  0.4010737488892473  0.5656642445836486
  0.0425953586307741  0.7745257527891700  0.9113791318020291
  0.8551829566839463  0.9708772370087586  0.7655357982722371
  0.6117201813298200  0.8606363437001018  0.0023723544986021
  0.6889990057366023  0.7460239414496268  0.5654829915084233
  0.0554421772046097  0.4155112238244610  0.2612066603082451
  0.9097877125368292  0.2030985355757305  0.0255786658379802
  0.6274037867749659  0.1891736222111501  0.7219741793573501
  0.5309165708910804  0.6358156390893446  0.8177309347090714
  0.2785064405850348  0.5714663789786013  0.9593159170537308
  0.3982670465527632  0.6640896450760440  0.5712068913469471
  0.7522118874762940  0.4297036532949091  0.9025992929238899
  0.5104019252678708  0.9526628069860495  0.4441138870738083
  0.5944864575442352  0.5478099524913382  0.3406294100969910
  0.8492669177195101  0.2749457810359017  0.4584034022080222
  0.3668381076565974  0.7674019992136961  0.1933219950365421
  0.2556298011893181  0.1964911590365294  0.3230338143365891
  0.8675278877149372  0.5509209436551221  0.4015987885753668
  0.3379236581095137  0.4710155918885041  0.2862642183490332
  0.5618547827890197  0.8918423452513086  0.7327401853296508
  0.5342383610888929  0.2566503393354079  0.3895085916983716
  0.0022257832582803  0.8103601451145672  0.5998571016777797
  0.2028101730756076  0.9272025256478114  0.3886864464071646
  0.8748302014855214  0.9160673385898853  0.0757375902043967
  0.6684868210934627  0.7859103885731259  0.3101895409840646
  0.7837823242077142  0.7213929441378604  0.8669267516854574
  0.8804430808338976  0.2146649658505272  0.7190385850827555
  0.1215489897728398  0.0634931343639529  0.8710589322085189
  0.2055631313934837  0.2573747392308840  0.0864489557934254
  0.7789625240828553  0.0111527859050199  0.4971497899022033
  0.6441890376435970  0.4429002301424321  0.6174855288053784
  0.6610594138128533  0.1327418508452398  0.9533593145120235
  0.0000810959190258  0.1518550752765010  0.2788347788668043
  0.3328405785506310  0.8315380807119892  0.9493366239388121
  0.4462694585706883  0.0375046027071343  0.1891881893201035
  0.0069230549715716  0.4864676001784367  0.9861502989190161
  0.0652907648284123  0.6969412216519553  0.2160462325622323
  0.1655275763271289  0.5874810685913565  0.7089523510254210
  0.7744549437668373  0.3577032866013064  0.1891588411862367
  0.1316308205689104  0.3267540599244917  0.5055076057199579
  0.5571566364812727  0.5684309559939934  0.0559703697848114
  0.3335720177956384  0.1490940288529714  0.6452043973197008
  0.9066695201667478  0.5748829604495297  0.6946921120887335
  0.4587496308683707  0.3592659947478653  0.8588254504461261
  0.5590207985953968  0.4654076780406846  0.9419057712861044
  0.8900917706188514  0.4416674930432660  0.0708057056887753
  0.8021548949166669  0.4714969586436871  0.5154281419891719
  0.7113061024077547  0.2376927472837806  0.0651795398876128
  0.5550796734204860  0.9341504630209534  0.2599641834071862
  0.7269601249793963  0.9168808288034918  0.3813112365138422
  0.7679497404944317  0.2063743717033876  0.8277574483523507
  0.4795729136813578  0.6860892290360048  0.9971305748537751
  0.6796220734620138  0.3007774129083503  0.3003688097615941
  0.1355408436883889  0.7968636363209994  0.2820845106216331
  0.4011207062820467  0.5648955347420102  0.4063564385416167
  0.2369214827555232  0.7442634803030032  0.0137674570201024
  0.8805196731593949  0.8954246973932289  0.5709423520804338
  0.3339044185875852  0.8141845015178052  0.4223141507865641
  0.5770921207339671  0.0361996538269957  0.0586655812053423
  0.3035574117180121  0.0046973587941245  0.2704429248550876
  0.2916466855987529  0.6908665308746452  0.7479501212080485
  0.2338624618116353  0.3684321876198655  0.4224430767997833
  0.5404564777846890  0.2413666668149249  0.8979379865412616
  0.7792051568406215  0.4850100856784437  0.2637680426860325
  0.9263443733785863  0.6866461980454724  0.5156111499324934
  0.7783850418579723  0.3679525312458311  0.7055893384649033
  0.8720686316304613  0.0819973428968559  0.3774004277738029
  0.3424530020081285  0.2758078102952680  0.7319034246564199
  0.2141273155346099  0.4782130858921865  0.6207805236628814
  0.4478674732624762  0.1566588023619097  0.3002769924882398
  0.1208255468199987  0.6981165507118011  0.6110028207838752
  0.5826899937831006  0.5775029879823879  0.5529712363176643
  0.6053979462464423  0.7072520873443739  0.1764122081645246
  0.9931041379116724  0.3795754287083364  0.8846380504238556
  0.7445451451512123  0.5806490954387107  0.7271515409557804
  0.0687972676715101  0.2194159086995552  0.1425988124269964
  0.0927814143559328  0.8392351129690800  0.4742802551666429
  0.2729090663576309  0.0251519451452540  0.4910550383511988
  0.5885606238791200  0.3420414608297809  0.4969499933421498
  0.0485284124328028  0.4604823122826566  0.4376466169695910
  0.0182164537055512  0.4867858077410944  0.6762760132680560
  0.4532324183340968  0.8290409658822020  0.8645950033580122
  0.7962672821651020  0.7872145641376040  0.0194855016191209
  0.9357173737642475  0.0339578836635676  0.1788843667633393
  0.9672407764338737  0.6217180094107897  0.3004329731912067
  0.9004108474659271  0.2880075387694684  0.2585219118391354
  0.6814484197777683  0.6324550061072486  0.9448511432238239
  0.7845081363271382  0.0250940240862423  0.9701093250925813
  0.0118548306361514  0.6271740855209373  0.0987502157865414
  0.0932506872871329  0.5887063990870423  0.8356388723807870
  0.6810937916031343  0.8303715789983486  0.8201700432920753
  0.4648317102650757  0.1743042679903708  0.5596039940801655
  0.2513195829561459  0.2208902279073037  0.5560174298762021
  0.0950951558815113  0.0400638355134836  0.3536367423097764
  0.7649017920677976  0.6677464541699856  0.3455671460659945
  0.2037706898108490  0.1046074600440411  0.7402657932873041
  0.4024629276518779  0.0197950749278558  0.7332210816590282
  0.8005954721785015  0.1605665878825860  0.5972344314309386
  0.5661729490412875  0.3984409507628869  0.7367923082779700
  0.3707317737773868  0.5000888967525826  0.8001130509880114
  0.7469906049558587  0.9156482033949598  0.1830696098028355
  0.9981696517520393  0.8321806028540017  0.1323017443139938
  0.2391642410971024  0.3603105634178090  0.1786894883773028
  0.9959944264897072  0.1288722086225887  0.8062038630778424
  0.9934337407585857  0.2584317718183519  0.6087233370474034
  0.6455389344316547  0.1241797121571642  0.4324748257048964
  0.5297484411444704  0.7713957798967992  0.4252319758385217
  0.6734928719761508  0.9791877811854897  0.6104520042245828
  0.3246332989907035  0.3394201961811721  0.9542483000219347
  0.6551592671004852  0.4573830808174847  0.1275147925938861
  0.9084221582363409  0.6226477061567761  0.9254592345698308
  0.0502641908958539  0.8997321564891302  0.7312198032007055
  0.1582793832944097  0.4525909080335052  0.0227383190643453
  0.3453889247289094  0.1544798118000702  0.1069809390212291
  0.0692929298813081  0.2544915051468734  0.3900852106871683
  0.1932384125811147  0.5903598170659240  0.2248509263925489
  0.4112482753392511  0.5350669399499216  0.1532965877268533
  0.2174114309671413  0.9281811447845301  0.9018744727687401
  0.3828650378056090  0.9290686839953846  0.0681776146600643
  0.4446757524870847  0.3650928657786458  0.3055648123375246
  0.6030100506586974  0.0238201015390722  0.7983582794380040
  0.8731806529245345  0.7303949186493742  0.7294714794184814
  0.1940393688339180  0.1866399050354739  0.9417989439273842
  0.0271949353227036  0.9987928599331555  0.9675843727920780
  0.4947839352305787  0.7946802131554415  0.6414468896539444
