Ca Si  O 
 1.0000000000000000
    13.6708636499999994    0.0000000000000000    0.0000000000000000
     0.0000000000000000   13.6708636499999994    0.0000000000000000
     0.0000000000000000    0.0000000000000000   13.6708636499999994
 Ca  Si  O  
  27  27  81
Direct
  0.8648077043764533  0.0079515415253227  0.5652782624307718
  0.4527498590039701  0.6046168933884437  0.1717554508708746
  0.1145501279284575  0.7237447189373438  0.0743761591097429
  0.5336844940297536  0.2880996446775329  0.5243229501451432
  0.1946393884193264  0.2502835444489274  0.0042305103379478
  0.8906479357651995  0.3709008611171394  0.5657136153208580
  0.1688756123319246  0.3208803578404500  0.3008564407706604
  0.7973685086091836  0.1670319351038221  0.7220554767218383
  0.0527328000963568  0.7555588150423840  0.2946057581373069
  0.0681363653275849  0.0707883645668575  0.6052183835510642
  0.9544418826823717  0.2167678711359249  0.2135790769883072
  0.2611964226561502  0.2611925209275275  0.7378384612884351
  0.9619492006271309  0.3346614535212631  0.8723322348401887
  0.2642355561786325  0.6211191858387090  0.7029488513697523
  0.3745628828651217  0.0303264007757111  0.4266751559620741
  0.4426104725285590  0.9849774743382800  0.1231337290091398
  0.4044346261913014  0.0545897186239583  0.8734152366445408
  0.2535230405871249  0.5454767585221290  0.4065844077085796
  0.9837535458120087  0.5430413183881034  0.7776760614535132
  0.6435909124146667  0.6070066597438414  0.8244974332693311
  0.9706671363078074  0.8547362543550787  0.8203654990004966
  0.6932615380155592  0.9453264285903400  0.9239960220069929
  0.6418701806012088  0.8641299103294035  0.5851756161725744
  0.8322783915703820  0.8905156968630874  0.1618224844192635
  0.5653835366867989  0.2851932160116307  0.2219779808863795
  0.6106026542075855  0.0492738789037663  0.3330143929860642
  0.6653199894945920  0.1259548645999406  0.8806204551678051
  0.2629315215209538  0.8062323860570434  0.8951310212211795
  0.3293586758873131  0.1453884085809019  0.5570492717188354
  0.1816255873490480  0.0317088211175305  0.9109843458939041
  0.1326089935802995  0.5258234032639189  0.9398060963032134
  0.8243380292948793  0.5432511537045430  0.4199225825794846
  0.2104123150990538  0.3467185827722011  0.5261970555898273
  0.0808520103995039  0.6431252146970247  0.5770837045836530
  0.5785448807398500  0.7868286902268974  0.2765813116715563
  0.8098731194645483  0.7425986265322748  0.9041597148838508
  0.7809231942709047  0.5579536871468980  0.9898577863440252
  0.5717424180439398  0.2318070248619589  0.7820120223348141
  0.9845094665983302  0.1265932317304621  0.8514604210831992
  0.0219651601894223  0.9837939997302220  0.1497323272622941
  0.4076678593747807  0.4063859901053143  0.2877533710169072
  0.7610681531448089  0.7470585356909766  0.4249588547392176
  0.7593756251090984  0.1297392268263900  0.1379981527355808
  0.1994489931146376  0.0885641164302008  0.1189911487413599
  0.2876130689811978  0.7983473911686626  0.2898882624727224
  0.8471925027209236  0.6221332936781943  0.6370564649732280
  0.7224614847211939  0.3270553737107896  0.4266684387566107
  0.9022309296457653  0.5722144247997090  0.2003762637190812
  0.6202890239491198  0.0371110109052986  0.6572686283795978
  0.0128731983951870  0.8252232769507579  0.5392817695171731
  0.4217876944446008  0.4413821558376819  0.7317463355725884
  0.6292708632201156  0.5086549619708921  0.4019614466712936
  0.9619866276700082  0.1699488583517546  0.4108607710384121
  0.0823043392726691  0.4707810768049026  0.1425257584219999
  0.5401830651715995  0.9824470738540356  0.6020919490335199
  0.9938841106062821  0.1963015284700027  0.9584690905757078
  0.7167877875806333  0.9909461221200900  0.5965193011050184
  0.9309445932481376  0.3986808711971903  0.6936352166748442
  0.2266887922622211  0.0756244577130282  0.5076308394020155
  0.9337849624445637  0.1502705785526579  0.5238778721928077
  0.8117829556437717  0.8638754728564644  0.9803052881739480
  0.9885055974499460  0.6752211891163146  0.1815245783685364
  0.8197482395342303  0.2641584520521496  0.3933768734501276
  0.1616197452163163  0.1923891348298248  0.1286422310268598
  0.3874465165922418  0.7497225956167006  0.2452932459757215
  0.1393866414577253  0.5060423516110484  0.2298690799977366
  0.9457358218915453  0.6729349809585732  0.6804986128290440
  0.2649572187050523  0.8934166072236410  0.3443334744985186
  0.9133272980891738  0.7262521376987036  0.8861798347319484
  0.2974589963085471  0.7330824662273624  0.8102836597305980
  0.3602068271670605  0.3071245041640073  0.2855346582291456
  0.6504305446715504  0.9910204107697321  0.7772679943304094
  0.2570608668165599  0.2521022371545634  0.5865462355042946
  0.0269409636018131  0.8557512070570611  0.1634596260493023
  0.6393072964340479  0.7891728683871411  0.3673748205366674
  0.7589472907953405  0.5790457283947822  0.7346680258931556
  0.8746583080725847  0.4953822650407314  0.9311349001714314
  0.9878111475422404  0.8991645783841902  0.4623315725923432
  0.5561059991992533  0.9062676087768603  0.2415727341410504
  0.6207721550935080  0.7285724036900917  0.1690113506471846
  0.6673649393028656  0.5314930692034223  0.0326103501149322
  0.0559756361844776  0.5922911988080578  0.9957545045078406
  0.5285351697586421  0.1577541430603033  0.8512894296915909
  0.1401447032938552  0.8267667931864715  0.9268033728066625
  0.9491089613786031  0.0206535949175384  0.0867620217980888
  0.8829887283675747  0.0656424387642839  0.8573298907856491
  0.8067175075658077  0.5401605055142218  0.1542456288048780
  0.6960820869572494  0.2101491854174114  0.1955537724933713
  0.3466635679597317  0.1344818299025314  0.6679971268676943
  0.3592894023195089  0.3662967598978284  0.8201941411360650
  0.3657117610122605  0.5253978610195560  0.6587640701105230
  0.1093778526567339  0.7619988960975410  0.5587267568132026
  0.7684915539333903  0.4321157610258222  0.4149681362669432
  0.3882540398243238  0.5415536947440771  0.2868663297654936
  0.7059356253618988  0.2652244593193642  0.5208412286373729
  0.2225414105421203  0.7333221745650284  0.1986417515033880
  0.3939801184397008  0.8236901638617397  0.9707065098261002
  0.9677419217036812  0.2235072866080410  0.7620474723994487
  0.2746151593721732  0.3709620452545440  0.4305202202788410
  0.2294157670133737  0.5956123364598110  0.9264091614285100
  0.3274566153689932  0.0977332986566653  0.0787696035575631
  0.9622828862022921  0.8550596867374944  0.6603404182149092
  0.4129508306521659  0.1861194358412023  0.4487997896168031
  0.1506065426963716  0.4218540260256345  0.0661190502035327
  0.1310717307900295  0.0313286498179652  0.1936274538148876
  0.5718316647829342  0.4679016091276720  0.2708329308807055
  0.0816055275337341  0.0414949387634336  0.8428030294925808
  0.7607081992950753  0.8009792878008846  0.8129342523286742
  0.8510126819968686  0.7688639854147036  0.3446962569917812
  0.8680580944862251  0.5807734561086051  0.3188372777019102
  0.9584480721523400  0.0868875310595319  0.3192197502459912
  0.5846065592205655  0.4720569896108942  0.5050024582755605
  0.1259424169591509  0.4125665301328640  0.5633573786686110
  0.5035730548011135  0.5270829476819484  0.7638592394270570
  0.1179795871930886  0.4540639800763429  0.8151764449790266
  0.1607453037540902  0.6485739575056035  0.4663484109871874
  0.5458082057602850  0.9831625729073818  0.9895894711816543
  0.7184541226844875  0.6747990980072426  0.9513360481801016
  0.1425220936937660  0.0511417791808640  0.0170379945234843
  0.2452005715088820  0.1258504805583369  0.8615793435991149
  0.7373727789319294  0.1074011677382211  0.0051553465680275
  0.2574592220441025  0.9450400216668097  0.9487730945220861
  0.5760788895001524  0.3218955468113385  0.3665234756401071
  0.6009345729960521  0.1517808115948841  0.6491571964438400
  0.8102386845179310  0.0563219412988586  0.2168880332589668
  0.9730246450084373  0.6913464761240596  0.4912453896063839
  0.6783887936736169  0.2720453604992250  0.7866493445715846
  0.4868927041050549  0.3127257757413154  0.6865777181531615
  0.3969528662514310  0.8047221398481288  0.0542793914852629
  0.9576884837118539  0.4587033051126949  0.1312522738824917
  0.7043024249605474  0.6073548850002611  0.4348433546113233
  0.8522872327821074  0.5634144884474801  0.5335879002787070
  0.7723603950947167  0.8251765103370042  0.5219585669702733
  0.0420298120667746  0.2492455778388222  0.3620252989649267
  0.1188199825253908  0.6224705401110486  0.6746148089919689
