Sc Cl  C 
 1.0000000000000000
    13.7939866799999997    0.0000000000000000    0.0000000000000000
    -6.8969933399999999   11.9459428800000005    0.0000000000000000
     0.0000000000000000    0.0000000000000000   27.8102210700000008
 Sc  Cl  C  
  32  32  16
Cartesian
 -0.0090172200000000  1.8458931300000001 15.1009175700000000
 -1.6667592700000000  4.9202398699999996 15.1832640500000000
 -3.6084190700000001  7.9007242299999998 15.2124173700000007
 -5.1284749800000000 10.9051686399999994 15.2684975200000004
  3.6333436799999999  1.9518397599999999 15.0957039599999998
  1.5132277100000000  4.7128512400000000 15.2455546399999999
 -0.0602844500000000  7.9876620000000003 15.1281209499999996
 -1.6502403500000000 10.9703715899999992 15.1218190600000000
  6.8201468099999998  2.0085726500000001 15.2037667899999995
  5.0644504299999999  5.0786586800000002 15.2684184100000007
  3.3430117799999999  8.0339773700000006 15.1970445099999996
  1.5907517400000000 10.8324558700000004 15.0442233499999993
 10.4168854799999995  1.8920328900000001 15.2150578999999997
  8.6848671300000007  5.0734538200000001 15.2333998499999996
  6.8627876800000003  7.9156952900000004 15.0445957000000003
  5.1561026900000000 11.0662353600000003 15.1439847699999994
  1.8287962400000000  0.9673573500000000 12.7311997300000002
  0.0034847900000000  4.0218002100000003 12.7103281900000002
 -1.7057659599999999  6.8619688500000002 12.5855251900000003
 -3.5176066100000001  9.9747806699999995 12.6506997099999996
  5.2052569599999998  0.9722593400000000 12.4727864999999998
  3.5511870200000000  3.9472496100000001 12.7140284700000006
  1.7892582400000001  6.8626673800000004 12.7474917699999999
 -0.0457336600000000  9.8437788400000006 12.5885237900000000
  8.5999116600000001  1.2164964800000000 12.6739331699999997
  7.0642218899999998  3.9943535799999998 12.8643625400000001
  5.0657707700000003  7.0382297300000003 12.5546741199999996
  3.4900623099999999 10.0129000999999995 12.6927893399999991
 12.2560044000000001  1.1010741900000001 12.5146026500000005
 10.2432548400000005  4.0400272099999999 12.7970757299999995
  8.5056365500000002  6.9790593300000001 12.5987430000000007
  6.9436980500000001 10.0442766500000005 12.6261867700000003
  0.0840547900000000  1.9198006100000000 10.9855404900000000
 -1.6822401100000000  4.9310234599999996 10.9962530500000000
 -3.5166684300000002  7.8425969200000001 11.0100479599999996
 -5.2511806099999996 10.8436054800000008 10.9232337099999999
  3.5100164600000001  1.9981938299999999 11.0200915399999992
  1.8221867100000000  4.8288276100000003 10.9926325600000006
  0.0611552800000000  7.9338556100000002 10.8753650299999993
 -1.5638866400000000 10.9498604200000003 10.8983359100000001
  6.9467450700000004  2.0689487500000001 10.9810280599999999
  5.2048538700000000  4.9346692699999997 11.0569428399999996
  3.2659046500000000  7.8126287300000001 10.9401850399999994
  1.8747206400000000 10.9151190299999996 10.9539814799999995
 10.2710635999999997  2.0129418900000000 11.0393446500000003
  8.6840299000000005  5.0637595900000001 10.9272356199999994
  6.9481488300000001  8.0091158999999994 10.9224757500000003
  5.0760004700000003 10.8589383599999998 11.0353874699999999
  1.8501993400000001  1.0783597300000001 16.6480093999999994
  0.0187928700000000  4.1436999300000004 17.0019656200000000
 -1.8782779000000001  6.8940803700000002 16.7875457799999985
 -3.4800534900000000 10.0084622599999999 16.8610746999999996
  5.0192546900000004  0.9494887300000000 16.9056517100000008
  3.4750429000000000  4.1360316299999997 16.7934851599999995
  1.7676353000000000  6.9679514800000000 16.6719474400000003
 -0.0096809900000000 10.0118051500000007 16.6786491499999983
  8.5946573999999991  1.1124667100000001 17.0126223100000011
  6.8565953500000001  4.0556836100000000 16.7690668400000007
  4.9652927800000004  7.0973360100000003 16.8806704900000000
  3.4667099100000001  9.9685905600000009 16.6800183299999993
 12.1229299699999995  1.1175871799999999 16.8108720900000002
 10.3396145500000003  3.9872850600000000 16.8268548299999985
  8.5372966500000000  7.0254262100000000 16.8662630900000003
  6.9162508300000001  9.9946191700000000 16.8575185800000007
  0.0250717000000000  0.0053724000000000 13.9908970999999998
 12.0247976100000002  2.9079633899999999 13.9201593100000007
 10.3651937499999995  5.8869406000000000 13.9397593900000007
 -5.0800314699999998  8.9548066300000002 13.8424299499999996
 -3.3376269299999999 11.9303433099999996 13.8837648700000003
  1.7103290200000001  2.9834001200000002 13.9439120400000007
 -0.0550422400000000  5.8130043899999997 13.9073027099999997
 -1.6640187099999999  8.9883641200000000 13.8478888300000005
 -0.0324410400000000 11.9257891100000002 13.8488994900000009
  5.3137633400000004  2.9496733800000001 13.8218406100000006
  3.5299491600000001  6.1705948599999996 13.9327448100000009
  1.5532807600000000  8.9474529799999996 13.9789748100000004
  3.5829111899999999 11.8868803799999991 13.9823758199999997
  8.6726878500000009  2.9478894400000000 13.8955698200000004
  6.9917597699999998  5.8956580000000001 13.9887887400000004
  5.2593778699999998  8.9252331300000005 13.8026771900000007
