Ca Si  O 
 1.0000000000000000
    11.1219476799999999    0.0000000000000000    0.0000000000000000
     0.0000000000000000   11.1219476799999999    0.0000000000000000
     0.0000000000000000    0.0000000000000000   11.1219476799999999
 Ca  Si  O  
  27  27  81
Direct
  0.6223281136672277  0.9270046584142895  0.6825270679568598
  0.2635017475644158  0.5550434597980414  0.6330157695904571
  0.8408808860715662  0.0153652655916828  0.4624171564166178
  0.8313488919415597  0.3174646376326057  0.0680070687043548
  0.9974482508984434  0.7708541009788314  0.5267714620286723
  0.5143818074497541  0.3288107528662642  0.7364484625951774
  0.8621668925167970  0.8853418387956308  0.0006593908019535
  0.0298078106046260  0.4782614882791824  0.8382861723730028
  0.2449107510996671  0.2718684529902410  0.9981238483941509
  0.9031863823693153  0.5429604637377686  0.3203595928082985
  0.6672860827556060  0.1373332462934226  0.8647873517060097
  0.5200852886946866  0.2136630793789168  0.3411716777649865
  0.3515108623492464  0.1384848233704333  0.5883983433736131
  0.1110185486864293  0.6636843260172574  0.0510934493085118
  0.1364660348770855  0.3218289685390787  0.4421255333580206
  0.0168055250193373  0.0947742167404262  0.1953100214548033
  0.3535012358554810  0.7326710603623339  0.8505864774936615
  0.7392451705904806  0.4542597272854640  0.5422422055486598
  0.6072884646046096  0.5381097899572208  0.9434141287023209
  0.1476233333620573  0.0067623056827759  0.7624141475910989
  0.9064082362236036  0.2111224830002078  0.6874215236373059
  0.8233477465882126  0.6646608905824307  0.7713917181455398
  0.3401556407969004  0.4584235375579468  0.2248512420623076
  0.4672179891067425  0.6902155189782371  0.4065691909458794
  0.3133076175377225  0.4891907241915743  0.9516174823437040
  0.6788791826073398  0.7753190257769672  0.2435829818613209
  0.4998659794091029  0.0132900463347621  0.0953164697858028
  0.1272123094540578  0.0472743466457307  0.4746603285585677
  0.2091080111968302  0.2982673642643857  0.7136841746049285
  0.5352863330498961  0.6359557402629320  0.6922198306906618
  0.0896048631654775  0.7249946566912819  0.7912432033666965
  0.5632718827895080  0.2728802955490975  0.0230697326927184
  0.6168341334977400  0.8146059368982753  0.9433212079271351
  0.3496758941775565  0.9312306151758483  0.3493111415176159
  0.7793407206533451  0.0484097484982954  0.1584335532497308
  0.4008323117736515  0.7292177650308816  0.1254176255934338
  0.8375861987511165  0.6099752449114201  0.0438081444022761
  0.9818124023039819  0.1469398829252540  0.9530784368875937
  0.7465756941953174  0.7198344382069597  0.5079319830067749
  0.0988749067735230  0.3973282087944510  0.1733622073647446
  0.5983420927223783  0.9847632289886836  0.3912996334109711
  0.7687968039425267  0.4014324746400893  0.8065526307169250
  0.3050536198889941  0.8622451638794258  0.6098436834221828
  0.4027568982414059  0.0792366890544481  0.8354518540587129
  0.1953966177981517  0.9199271732233143  0.0285108003672968
  0.8701411918528283  0.2795869895694384  0.3361285502828404
  0.1607405520540985  0.6157841528346409  0.3760322778285179
  0.6323488108694285  0.4590160003342148  0.2328607159928665
  0.4580091128427247  0.4275887998063303  0.4889599498637454
  0.9945438522329031  0.4916201431006911  0.5934219320118218
  0.9578510829678710  0.8195882755672161  0.2521386586850047
  0.1564848873664185  0.8090452849531836  0.3105599198431043
  0.3076536599927612  0.1685723997219883  0.2864625326128130
  0.8749527259060079  0.9395063203534150  0.7138092444254331
  0.2903662202805831  0.9992191295760529  0.9301742462431724
  0.5095796494521901  0.1413800689628851  0.7388408025670553
  0.7487591310086077  0.3960879395181618  0.3309147458604121
  0.1848219142135004  0.7874995551138934  0.6945969179383875
  0.6422029652993296  0.1516140732285840  0.0820456251238182
  0.1902469163566502  0.6080519585756583  0.8712677364438024
  0.2219836040444312  0.7401562358365634  0.4570737236196026
  0.0879126370786884  0.8387811962805420  0.1671233189976668
  0.4100690725421574  0.2020594984492860  0.1894690490038342
  0.2791317203894633  0.0797000044869839  0.4137961976098776
  0.8357162232217945  0.4724095240483994  0.9173424299007311
  0.0978578304191411  0.1007321947768774  0.3594626809105795
  0.7023171457681232  0.6153903701873915  0.4200039790153013
  0.8572990463842930  0.1025621611268000  0.0481125028993123
  0.4472627019227265  0.5258886813968540  0.7793730926811913
  0.3931907796926446  0.7398884140408041  0.6320020793336442
  0.2675511021645087  0.4298240485878638  0.7740658981413227
  0.8798189814897601  0.9527060749489157  0.2039488329979268
  0.5307894615091374  0.7725555817396185  0.0422876130631105
  0.9608280237836903  0.9785526333279784  0.8360361186306173
  0.2661286255933907  0.9091953685579647  0.2210572240347025
  0.8645082477136774  0.2089972796922921  0.4558545468719558
  0.8559464253836517  0.2068564019714935  0.8673676578561283
  0.4472356634930690  0.7962131008693973  0.2355470521328689
  0.2290196819195970  0.6941883644969638  0.2606739892522134
  0.9378689164989850  0.4433696158153479  0.4732100016496391
  0.8351695114249988  0.1830756589209202  0.2261310961318962
  0.1216228630919076  0.1787268154097268  0.5946770997577646
  0.9475244006902215  0.8095089123814329  0.7379610313002299
  0.3959565578535431  0.8744743213897226  0.4708645383593461
  0.7003416338674954  0.2961873382954091  0.7341808714568597
  0.6313724036507965  0.8408380185798535  0.4092995112884760
  0.2224640351841684  0.4320972808244680  0.1109893163964246
  0.7136940191036755  0.9267211514161700  0.1039075091207406
  0.3546751219746792  0.6058455689480460  0.0831839338413431
  0.6514363237860511  0.3396094783643147  0.9313213879459645
  0.1437270994247295  0.8249852232716132  0.9208052208711702
  0.5449514108845367  0.0500216559191726  0.5257310669168693
  0.0645594063790813  0.9085626430495849  0.3595852053136074
  0.0573842269684189  0.5909283256042074  0.6867596467599999
  0.2819700299111639  0.1699629574232991  0.7807174237669134
  0.0753274169331464  0.0295963440460997  0.0062242326606593
  0.9928601543286526  0.4820816555037058  0.1099684915978673
  0.6228632240787524  0.3474712884101609  0.1481865359755046
  0.4782425401591171  0.9970849386336980  0.3039562994959171
  0.3203808471790976  0.2979162144377216  0.3773760757342458
  0.4754988345710325  0.3992075109276184  0.0150255157467168
  0.1130173973269401  0.5611448173976664  0.4983092664575455
  0.5394996769127042  0.7439126777118591  0.7975549647613518
  0.1003886191631500  0.3854076878736045  0.6423578967960043
  0.3719444173828374  0.9503935950901721  0.6965098706524395
  0.3030511172122327  0.3227507549289245  0.5796882844174646
  0.8778048207829727  0.4302828162557945  0.7012600611334651
  0.7143998702932218  0.6918496212526689  0.9988867777158973
  0.5312285923287133  0.4184061131997701  0.3493268087375142
  0.9935296971294509  0.3166009309980857  0.2760935672734616
  0.0179420309950604  0.7046888041106124  0.3556052207575211
  0.0709159252221909  0.2367478436115067  0.8146045864153895
  0.7282926366004987  0.8415285945671702  0.8531594297160010
  0.3031931049328583  0.8129733280673012  0.0465306576590549
  0.9046280165561793  0.7113287589211172  0.1619582407530261
  0.5357707176338740  0.5034394767086334  0.5888351562538550
  0.3498004541952673  0.5233083752467355  0.4331257760421329
  0.9308114143187554  0.6730553717188499  0.9272296477841370
  0.7905818785509697  0.8413653102169601  0.5978178976652045
  0.0432955974847744  0.2565384986597959  0.0589516358882925
  0.1975102682734433  0.9656332414971404  0.5643248521377687
  0.8664582110316131  0.6338264594317889  0.5534641303041986
  0.6851480738129133  0.0585405927750237  0.3114289061284273
  0.8343950535469521  0.8236770126579124  0.3535883168261766
  0.4483066278909163  0.1874388020857872  0.9649130780661971
  0.5349748003849628  0.9633275509168732  0.9110501623938587
  0.1595011989842412  0.2624040009869926  0.2160109981743773
  0.7612464060791193  0.0504610663660306  0.7067051559803776
  0.7878550189331587  0.5176346253051246  0.1361397754750092
  0.6749358220322071  0.5260724091088333  0.7491287668060671
  0.6083052523404785  0.6056395142114173  0.2740295052350040
  0.1318787960707256  0.4781338802341857  0.2964953688758946
  0.5973775988847305  0.7232188328366601  0.5898855981671008
  0.0034140764812517  0.9924022291390603  0.5735167160937408
  0.5135007225640896  0.3001913033635130  0.5310015115985512
