Sc  F  C 
 1.0000000000000000
    13.1286234000000004    0.0000000000000000    0.0000000000000000
    -6.5643117000000002   11.3697213799999997    0.0000000000000000
     0.0000000000000000    0.0000000000000000   26.8280942399999986
 Sc  F   C  
  32  32  16
Cartesian
 -0.0283030700000000  1.8648249600000000 12.1856366499999993
 -1.6469048100000001  4.9253275099999998 12.1726120899999994
 -3.2058607000000001  7.8276025899999997 12.1217862699999994
 -4.9140711000000001 10.5468620099999999 12.3091746400000002
  3.3333781099999999  1.9830609100000001 12.2516574400000007
  1.6035380900000000  4.7426950500000000 12.0937225599999998
 -0.0824851200000000  7.6378519000000002 12.1544094999999999
 -1.6913267200000000 10.5906621199999993 12.2412136599999997
  6.5926288199999998  1.8237071400000000 12.1876441999999994
  5.0863133800000000  4.7898569999999996 12.0801914299999993
  3.2519963100000000  7.4442843400000003 12.0405957200000007
  1.5988744500000001 10.3401282699999992 12.1449280099999992
  9.8300169499999992  1.9910474199999999 12.1046177900000007
  8.1191649899999998  4.7709679700000001 12.0917289799999992
  6.6787203000000002  7.5931675099999998 12.0433292600000001
  4.8407736300000002 10.3413444999999999 12.0670469400000009
  1.6206105700000000  0.8975055800000000 14.9457363200000000
 -0.0742481300000000  3.8075759900000001 14.6312529599999994
 -1.7652491400000001  6.5950265200000002 14.7397124300000009
 -3.2798218800000001  9.5534017400000000 14.7289839100000002
  4.9761627300000004  0.9301709200000000 14.7181919699999995
  3.3345622000000001  3.8351037899999998 14.6305576500000001
  1.8212255500000001  6.6792012300000003 14.6591082999999998
  0.0560772400000000  9.2340090999999997 14.7429592800000009
  8.2174925400000003  0.7849222600000000 14.5623843900000001
  6.6414886600000003  3.7332769899999998 14.6603456500000000
  5.0045868699999998  6.6839160399999997 14.6180597300000006
  3.4759022100000001  9.5828126299999994 14.6435078700000005
 11.3653316800000006  0.9415695900000000 14.6573111100000002
  9.7458788700000003  3.7557085500000000 14.6703054999999996
  8.2370437699999997  6.7256411099999998 14.5671893099999998
  6.5625742899999997  9.4358409800000000 14.6838331800000006
 -0.1561141800000000  1.9285379600000001 16.0940172200000013
 -1.5896220200000000  4.7450017700000000 15.7656327699999999
 -3.3826587699999999  7.5783532800000000 15.9870621699999997
 -4.9550249700000002 10.2607821900000005 15.9074644999999997
  3.3834181499999998  1.7531303199999999 15.8684537799999994
  1.6713073300000001  4.7564946900000002 15.7146621300000007
  0.2946981800000000  7.5641050700000001 15.8523902900000007
 -1.5886749400000000 10.3353610000000007 15.9209699199999992
  6.6682901399999999  1.8145762400000001 15.9714137100000002
  5.1534493799999996  4.8162674599999997 15.6782140699999992
  3.2021463099999998  7.8305960600000004 16.0077455999999998
  1.6448249600000000 10.3023795099999997 15.8159189799999993
  9.8325878699999993  1.7734202200000000 15.9144755799999995
  8.3094936799999992  4.7360610699999999 15.7924636399999994
  6.8145075799999999  7.5249671899999999 15.7469288200000008
  4.8098395199999997 10.1810438300000001 16.0692185199999997
  1.4059863900000000  0.8598020000000000 10.8259244199999998
 -0.4405416300000000  3.6321995199999999 10.9423332999999996
 -1.8450619200000000  6.7591171900000004 11.0454245300000000
 -3.1913659800000000  9.5903288500000006 11.0172679400000000
  4.8169410900000003  0.8195573300000000 11.0141974299999994
  3.1435614599999999  3.8544965599999998 10.9460104600000001
  1.7162237499999999  6.6253470800000001 11.1401148100000000
 -0.2476506300000000  9.3298687200000003 10.9673868399999996
  8.0328163600000000  0.8831212899999999 10.9975557199999994
  6.4929310800000000  3.5395459200000001 10.8648844499999999
  4.8562956100000001  6.5987286000000003 10.8054788500000001
  3.2346021100000000  9.5163175599999992 10.8466317500000002
 11.3689398399999995  0.9185117600000000 11.0076312400000003
  9.6936148400000004  3.8611176600000001 10.8965156400000005
  8.5699812200000007  6.7828219900000004 10.8724938299999998
  6.5868340500000002  9.4357320900000001 11.2471412300000004
 -6.4694068099999997 11.3029927099999998 13.5202049700000000
 11.4118197000000006  2.7506974700000000 13.5001164599999992
  9.7445960399999993  5.7155155899999999 13.4288453400000005
  8.1746025000000007  8.5591463000000001 13.4223616299999993
  3.3053170900000000  0.0857982900000000 13.4989557599999994
  1.6469614299999999  2.8410369800000002 13.4859688599999998
  0.0226227800000000  5.6586570099999998 13.3881095099999996
 -1.7101294700000000  8.5708805899999998 13.4911580099999995
 -0.0135022000000000 11.2564441300000002 13.4030669800000002
  5.0134086299999998  2.8137630200000001 13.3824220199999999
  3.4489020799999999  5.6439050899999996 13.3303832300000007
  1.6252931500000001  8.4111720999999999 13.2940235399999995
  9.8011424599999994  0.0008166300000000 13.2572418299999999
  8.2024709300000005  2.8390233700000000 13.4195204300000004
  6.6121728500000003  5.8044281399999997 13.2774757300000008
  4.9324138000000000  8.5252797200000003 13.4324430699999997
