Sc  F  C 
 1.0000000000000000
    13.1286234000000004    0.0000000000000000    0.0000000000000000
    -6.5643117000000002   11.3697213799999997    0.0000000000000000
     0.0000000000000000    0.0000000000000000   26.8280942399999986
 Sc  F   C  
  32  32  16
Cartesian
 -0.1314985500000000  1.8184279299999999 12.0020472500000004
 -1.6592834999999999  4.6350608099999997 12.0578573900000006
 -3.3699060400000000  7.5869007899999996 12.3076408199999996
 -4.9037849199999997 10.4315770499999996 12.1564508900000003
  3.2368499900000001  1.9752428900000001 12.3190113799999992
  1.6861133100000001  4.6958520100000003 12.1125477299999993
 -0.0938573500000000  7.4070585500000004 12.1082647800000007
 -1.5426770599999999 10.3877607399999992 11.9670863999999995
  6.6348618899999998  1.9505726100000000 12.2936923100000008
  5.0749878600000002  4.7637982699999997 12.2593217699999997
  3.1341615699999998  7.5645557900000000 11.9216283399999998
  1.6020323599999999 10.4814312399999991 12.2045432300000005
  9.7206301400000008  1.9450866000000000 12.2072838899999994
  8.2750271600000005  4.8894460200000003 12.0746186000000009
  6.5101824600000002  7.6542051799999999 12.1345115299999993
  4.9110224799999997 10.3142665499999993 12.0224798300000000
  1.5583058299999999  1.0124700000000000 14.7597072100000002
  0.0238106100000000  3.8404328900000002 14.7214377600000006
 -1.5534328399999999  6.6727633500000003 14.5943600700000005
 -3.1429163800000000  9.5340577799999995 14.6779931000000001
  4.9051624000000000  0.9146389400000000 14.6946696699999997
  3.3125257499999998  3.8242095699999998 14.5920473200000007
  1.7776815399999999  6.6268551499999999 14.7098695900000003
  0.0335142800000000  9.4479713899999993 14.6884581099999991
  8.2386071300000001  0.8628487500000001 14.7576999200000003
  6.7155904299999998  3.7854461900000000 14.7677522400000001
  4.9025263199999998  6.6869059599999998 14.6378051100000004
  3.3232977500000001  9.3516193800000007 14.6656697099999995
 11.3071097599999995  1.0744751800000001 14.7151359700000004
  9.9033986800000005  3.8506627700000000 14.6143692699999992
  8.1893023899999999  6.5900791500000002 14.7325695900000007
  6.4541897300000004  9.5728538600000004 14.6157068500000005
 -0.2451834400000000  1.8571844300000000 15.9492260500000000
 -1.5152848500000000  4.7048294100000003 15.6226520000000004
 -3.0306166399999999  7.4979941700000001 15.8469056399999992
 -4.9663585100000001 10.3315773699999998 15.7250361800000000
  3.1452485100000001  1.6891866900000001 15.9763284199999998
  1.8393461200000001  4.5929261199999996 15.8961484899999999
  0.0365886700000000  7.3575030500000000 15.7690689299999995
 -1.5812906799999999 10.3944111499999998 16.0356966599999993
  6.7379728300000004  2.1888723699999999 16.0386413999999995
  4.9069965699999996  5.1117766500000004 15.8327400800000007
  3.1245983399999999  7.7278645800000003 15.7306019599999996
  1.4274511100000000 10.2845382399999998 16.0270442799999984
  9.8553786599999995  1.7565501600000000 15.8744407400000007
  8.1093389400000007  4.8170182700000002 15.9048964599999998
  6.2833236499999998  7.6470473800000001 15.9183312200000007
  4.8289752200000002 10.4392424899999998 15.6539910399999993
  1.6369537599999999  0.9593330900000000 10.8856276100000002
  0.0494939200000000  3.7473442600000002 10.9004773999999998
 -1.6038815700000000  6.5195674700000001 10.9815330899999992
 -3.1465551000000000  9.6842664799999998 11.2017143299999997
  4.7438986099999996  0.9448657499999999 11.2087092100000003
  3.2847179799999999  3.5535413800000000 10.9004289300000003
  1.4607629099999999  6.7315457600000004 10.8313640499999995
 -0.0508849000000000  9.4433915400000004 10.8206674100000004
  8.2054151100000006  1.0212728000000000 11.1961612000000006
  6.5805188799999996  3.8675148500000001 11.0912475300000004
  5.2686634999999997  6.6297753799999999 10.8813960200000004
  3.3926259299999999  9.3328754200000006 10.7873879499999994
 11.4018552900000003  0.8743108300000000 11.1045165099999998
  9.7683738600000005  3.7511851200000002 11.0235527799999993
  8.5743396500000006  6.5771899500000002 11.0411345200000000
  6.4430463199999997  9.4136847699999997 10.7466828700000008
 -0.0640506600000000  0.1178773800000000 13.3729806700000005
 11.4739054199999995  2.8547747800000001 13.2727754600000001
  9.7639061500000004  5.6714726400000002 13.4999618600000009
  8.1719122100000003  8.5313566600000001 13.3137085899999992
 -3.2495160699999999 11.3652595200000004 13.5544557900000004
  1.5839185300000000  2.9281843300000001 13.4940877100000005
 -0.0581173700000000  5.4812506100000000 13.3150622199999997
 -1.6771869600000000  8.4913649200000005 13.5030073200000000
  6.7168605499999998  0.0352673400000000 13.6171268600000008
  5.1105216999999996  2.6763801400000000 13.5770250299999997
  3.3544393399999999  5.6390750599999997 13.3450696499999992
  1.6225263800000000  8.5005961299999999 13.2788230400000007
  3.2645568300000001 11.2361175600000003 13.4373509500000008
  8.2883592000000004  2.9270532999999999 13.6321470199999997
  6.6581590700000000  5.7863196800000001 13.3799733399999994
  4.7657924899999999  8.5756913299999997 13.3673900700000008
