Sc  F  C 
 1.0000000000000000
    13.1286234000000004    0.0000000000000000    0.0000000000000000
    -6.5643117000000002   11.3697213799999997    0.0000000000000000
     0.0000000000000000    0.0000000000000000   26.8280942399999986
 Sc  F   C  
  32  32  16
Cartesian
  0.0883792300000000  1.8897133800000001 12.2786419799999997
 -1.6869405900000001  4.8130730000000002 12.1087206500000004
 -3.2704477600000001  7.7577347500000000 12.2047828200000001
 -4.8924150400000004 10.3850657799999997 12.2827328799999993
  3.2504810200000001  1.8716590600000000 12.0717044500000004
  1.5605130199999999  4.7863259100000004 12.2902213099999997
  0.0222097600000000  7.5291021599999999 12.3509684199999992
 -1.5563548899999999 10.4698287099999998 12.1525014799999997
  6.5744715800000000  1.8941055300000000 11.9411709500000001
  4.7766119500000004  4.6063895700000002 12.0841890999999997
  3.3718369899999998  7.5967970899999999 12.1230238000000003
  1.5733965800000000 10.4141841100000008 12.1313410899999994
  9.9018214400000009  1.9942609800000000 12.0861722000000000
  8.1116774300000003  4.8575742599999998 12.1556773699999994
  6.5722680300000000  7.6394826399999998 12.1278357400000001
  4.8308320900000004 10.3989665200000001 12.1729652000000002
  1.6451011799999999  0.9052641600000000 14.7619765600000008
 -0.0125243400000000  3.8694339200000001 14.7000809900000000
 -1.6907435900000001  6.6940354700000002 14.8101465200000000
 -3.3996970800000001  9.4470903300000000 14.8945135700000009
  4.9396632299999998  1.0187066300000001 14.6885405799999997
  3.4149992800000000  3.7214108600000002 14.6419450700000002
  1.6861164700000000  6.7314510600000004 14.7691952600000000
 -0.0253484400000000  9.5022228500000008 14.6381282400000003
  8.3362421799999993  0.9311800800000000 14.6018858599999994
  6.4468288600000001  3.6712866000000002 14.5052074799999993
  5.0237874099999997  6.6648998300000004 14.6595217400000006
  3.2678586799999998  9.4172573499999999 14.6280133200000009
 11.4698144099999997  0.8120572800000000 14.6816029199999996
 10.0143843100000005  3.8150737600000002 14.4474261399999993
  8.2027689499999994  6.5521875100000004 14.5560041200000008
  6.4839355500000000  9.5410196400000000 14.6900500500000000
 -0.0862851700000000  1.9854967800000001 15.8157278100000003
 -1.8159023100000000  4.8077014100000000 15.7764341800000008
 -3.2942564000000001  7.3505436099999999 16.1315054199999999
 -5.0012563700000001 10.4554843399999999 15.9830611800000000
  3.3775727400000002  1.9977421399999999 15.7680203999999993
  1.2964048600000000  5.0239478699999998 15.9195628100000004
  0.1139527600000000  7.7578940200000002 15.8917508999999999
 -1.6220906700000000 10.2713299500000002 15.8911731100000004
  6.6074876500000004  1.7632630800000000 15.6895892099999994
  4.8984130700000001  4.5714971300000000 15.8081111399999994
  3.4539781100000000  7.6002283600000000 15.9079028000000005
  1.7494346800000000 10.1934615300000004 15.8304426800000009
 10.0122611500000005  1.7903656100000001 15.6929380100000007
  8.0682828099999995  4.4615155700000004 15.8183004000000000
  6.7019551200000000  7.3831983699999997 15.9142942600000001
  4.7876184400000001 10.4976762499999996 15.9600182700000008
  1.5693904000000001  0.9741848800000000 11.0418531800000004
  0.1011614700000000  3.6723581400000000 10.9821230399999994
 -1.5285786699999999  6.7606618999999997 11.0144435299999994
 -3.0436970699999999  9.6398585000000008 10.9832164999999993
  4.7733328700000000  0.9376232000000000 11.0670168300000000
  3.3883803200000000  3.7151885600000001 10.9006018499999993
  1.7992026900000000  6.6623157700000002 11.0291623899999998
 -0.0527277100000000  9.5482077000000007 11.0280003999999998
  7.9352745599999999  0.7229227600000000 10.9347720899999992
  6.4266605300000004  3.7231383100000000 10.9380830699999994
  4.9528880099999997  6.6631116300000004 11.0673162099999995
  3.1865592899999999  9.3576724799999997 11.0264233199999993
 11.3204777300000003  0.9474104800000001 10.9058730500000003
  9.9843175199999994  3.6839447900000000 10.7421210299999998
  8.2221199600000006  6.6954855999999996 10.8756835899999995
  6.6399673899999998  9.5548079799999996 10.9880788599999999
 -6.4931064500000000 11.3501246699999996 13.4830310400000002
 11.4619161700000003  2.8573371100000000 13.3733231900000007
 -3.2514144400000000  5.6453089199999997 13.3119409599999994
  8.1432473900000009  8.6039987100000008 13.4270927899999997
 -3.3058779899999999 11.2959017599999996 13.5698557500000003
  1.6280806200000000  2.9168174100000002 13.4931875399999992
  0.0240939700000000  5.7366580100000002 13.5076429200000003
 -1.6533967899999999  8.5685839999999995 13.5545419400000000
  0.0231177100000000 11.3190696299999995 13.4338679699999997
  4.8928186399999998  2.7998778500000001 13.2551620700000008
  3.3041049600000001  5.7109728999999998 13.4010721600000000
  1.5808033200000000  8.5306297099999995 13.3740708300000009
  3.2091934700000002 11.3344200399999995 13.3609560599999995
  8.3492354300000002  2.7768659200000001 13.3110580899999995
  6.6257223700000001  5.7364104899999999 13.3227358099999993
  5.0065662499999997  8.6327628999999995 13.3752065699999996
