Ca Si  O 
 1.0000000000000000
    11.1219476799999999    0.0000000000000000    0.0000000000000000
     0.0000000000000000   11.1219476799999999    0.0000000000000000
     0.0000000000000000    0.0000000000000000   11.1219476799999999
 Ca  Si  O  
  27  27  81
Direct
  0.4985858484096015  0.3270219519680387  0.6983303845212837
  0.4999239764451040  0.1810397403344016  0.9746334492736975
  0.2218421980564469  0.2407072679198217  0.7532511751574792
  0.3130080171353584  0.5625447619440698  0.6616559079155819
  0.7882036808862241  0.1598604858748985  0.6380021660019174
  0.3930825603380288  0.1472110341738274  0.4836208292610849
  0.5175530110028354  0.6416779987945420  0.9539186602251665
  0.8784798824013169  0.0596690129367701  0.2660350017039461
  0.1943338758809914  0.1211669204687357  0.2584970530988867
  0.9623796962511875  0.9763208416747380  0.5134804680181699
  0.0858770196984059  0.9139979770161982  0.8950026574841790
  0.8871038988739425  0.6564598845514440  0.3424957830767281
  0.1297480865329875  0.6268933545279903  0.8067653542495354
  0.6760872031003835  0.8903929343066286  0.1335045059302059
  0.3864387689692854  0.4404298744192618  0.2857209340873288
  0.2461612577914950  0.6092172014245619  0.1255878691563850
  0.5620541563274104  0.1203530684114853  0.2379562542592360
  0.8771718848797894  0.4942336664543633  0.9570993441321421
  0.6580681424316860  0.5138653322634583  0.4605699790524460
  0.0274496040427336  0.6744437940028144  0.5749478620097230
  0.9083504455039839  0.4092474080043506  0.6044050973273415
  0.2828456175582368  0.0556854166032185  0.8891879646029768
  0.8036149941679999  0.3076901320219122  0.1118037295064851
  0.6789553958772083  0.6615432199191931  0.1830790782860435
  0.2955538862955701  0.8600491780051244  0.4153705135933529
  0.5376161165325676  0.0657820564392369  0.7181951938475581
  0.0905153331920727  0.4041288647745194  0.2078613860193955
  0.8655986583457834  0.8417683367487303  0.8161886039370398
  0.1816878849047058  0.9725724712274495  0.6219889014978714
  0.5401650136156727  0.5682200538817855  0.6695702788992081
  0.7611689115588430  0.7681493993505281  0.5822743845167954
  0.1176443135362780  0.3967146157263707  0.8742671868062590
  0.5789839203775143  0.4257589908029490  0.0731004490753008
  0.0683706569998898  0.8595886201831152  0.2470323030687014
  0.0659657041292609  0.1373756597279731  0.0314453637134894
  0.2179266221831390  0.3858441420037322  0.5149606727874843
  0.7611057184904866  0.0633471798529446  0.9547885312476132
  0.4323421507050283  0.7572467747843245  0.2412450307444712
  0.6636325626016611  0.9932485062724193  0.4695937483496596
  0.4223748793970230  0.8409278436742296  0.6364237733943376
  0.3229080655053037  0.3069798274756854  0.0971901964566695
  0.9264068935091412  0.7222406498499191  0.0996717968736210
  0.5680045916202331  0.7919429791815024  0.4664057770500140
  0.2069287103497685  0.6273944025602537  0.4034511777167432
  0.3837303503661150  0.4636670535029886  0.9096388574271731
  0.6377459941440761  0.2687199711768469  0.4514116856554031
  0.0782969435799396  0.1822236714567965  0.4684418835532591
  0.6169380694299400  0.8664940950342610  0.8879621613181333
  0.9244858873495437  0.2609463929792555  0.8218119193669863
  0.3163869603817449  0.9607114255009693  0.1476011888593959
  0.7562746500889851  0.6118744716123318  0.7134057791215935
  0.9221763053645294  0.4099045096389088  0.3578812564599297
  0.3378458843820060  0.8018666987651213  0.8477583154751902
  0.7147670631732372  0.3224844580459310  0.8670224997857569
  0.8981722327253385  0.1012887160066194  0.0472613246459724
  0.4128789904539453  0.6422417894344923  0.3353007321465839
  0.2766823706187404  0.2830408666335319  0.2117255437403748
  0.6900330752140348  0.4817884361779339  0.6592182692231474
  0.1150944391063706  0.9917456642809884  0.7348112268767658
  0.9987164721134526  0.3571541158337835  0.9607449421125130
  0.3182335281404596  0.8209964309057063  0.1322299333096665
  0.0717091361105917  0.7130763835781683  0.1350740394779487
  0.4001618905295911  0.0063664271795963  0.2908813692603164
  0.2776173228680392  0.4332539658197708  0.8055455804841549
  0.2704375570304787  0.2490214771447297  0.9678223904394413
  0.4908107767685524  0.4873678375368872  0.7699531598587775
  0.2007262562486717  0.2929085771423086  0.4130635399644318
  0.9164495386297303  0.8082620714144556  0.9377487253203838
  0.2813252201884122  0.4987773634266907  0.4429497154404884
  0.6188179586904872  0.0150120064222420  0.9173521125573213
  0.9519906840633510  0.8920219942987540  0.3015967919029088
  0.8121794662137810  0.3954445387212970  0.4448704581570195
  0.4709999265164678  0.8322635860484464  0.9037511593472988
  0.4009975445236045  0.0190329667150529  0.0550793536910434
  0.6314990873972534  0.2947495424650298  0.0235507051045577
  0.8353863133799601  0.0542542329240664  0.8165444813529278
  0.4635422956781972  0.6639280144500733  0.7414273612191637
  0.2578061552255028  0.7219954643771530  0.5263592716343366
  0.8138645631535644  0.3622256061539034  0.7601976428286883
  0.6770583027953967  0.7187866891673779  0.8608719322801203
  0.0054151459558026  0.3674138512041625  0.7749113417875744
  0.6525331343763343  0.4668891456248965  0.9345921496009052
  0.7933276170563679  0.8834654399309311  0.7037469771661432
  0.1400319669549102  0.5028409232725324  0.5966089448462502
  0.7866288613938166  0.0759436597169822  0.4602251006093566
  0.0847850320043944  0.1744600816176470  0.8836888252651806
  0.6803639279482746  0.8773969138110528  0.5529520347464896
  0.1003875006540221  0.7071805232588542  0.3671721300526744
  0.4947205209294780  0.5367428045660434  0.5381477149692903
  0.3563241811617657  0.6590045665454883  0.9371372640731573
  0.5643366989836442  0.1070051536153243  0.5087104240001243
  0.5107399102600346  0.3169607960248919  0.4150810588959721
  0.0894940318582761  0.5564436210331102  0.9633686129694147
  0.1174240886197012  0.2922924467488593  0.6050259714942302
  0.8573467403687696  0.6352049320196046  0.8283657867378136
  0.2385958877303404  0.8464622178478005  0.9517131868039860
  0.9995110325856164  0.7689214259997310  0.7320912833137873
  0.6869677119358648  0.7593342823565593  0.3499833169508310
  0.2773788322658248  0.7850569020119683  0.7280712733940859
  0.4828753177518993  0.3632826593192533  0.9234431662062988
  0.6956952246694978  0.3001470817924221  0.5916682778353081
  0.2185593135248412  0.5477571038169099  0.2710250197832256
  0.7085674494019918  0.0993433265278586  0.1000574073910767
  0.8211407599428664  0.2456871906450112  0.9365584032310426
  0.8348165768389947  0.8035621616950459  0.1716686002248843
  0.1988671331350841  0.1275397053477238  0.5514267893049466
  0.6144204051857218  0.2137778551391279  0.8280215170010582
  0.6620716282671814  0.4664507808581959  0.1939278112122894
  0.0223331512740941  0.5056729308404730  0.4259913574777759
  0.8377273287083112  0.6285478920720835  0.5655476550488502
  0.6755175366910195  0.2835605292111930  0.3244974975462211
  0.8597906792167178  0.7970078816267188  0.4714969365869198
  0.8900450240204690  0.4401366389092741  0.2152511204764092
  0.7466735817264697  0.9015746116151482  0.9455620834209857
  0.1788947113622818  0.9369879071396603  0.2914681127145888
  0.4400266671637498  0.5175912561027260  0.1008663835037929
  0.3302705457431175  0.3362918337339274  0.5804665464853184
  0.6234857850005638  0.7143942876379364  0.6074126290081594
  0.2684233702491217  0.4461518272490201  0.0385891709211853
  0.0512667346048871  0.0669249147196132  0.3904728924241801
  0.1326219959344387  0.8868027016289649  0.5230994639960399
  0.4846303889464080  0.8512838706322704  0.3304550880606192
  0.4045776449831312  0.1880064850296077  0.8081208533431978
  0.0763542244967655  0.9822850479368554  0.0640863570399389
  0.4723314657779437  0.9540094896400376  0.5208874152876791
  0.4569541294587352  0.3174633446935977  0.1474532939000483
  0.9504400042277487  0.1690932949974100  0.7018990220604957
  0.9656018890748819  0.2741461188028174  0.3987970405557599
  0.0196175333923168  0.2214821909681920  0.1695509144851507
  0.5198491645844534  0.7579022984578543  0.1230920679893002
  0.4373155619807770  0.7350809485196211  0.5291203635656736
  0.3399875865986811  0.9569555500732224  0.6784871478553834
  0.8567314524536586  0.6024377018108756  0.1200761861523161
  0.6461949288723861  0.9688686163645034  0.3392013016554669
  0.5438178738132672  0.8604483490970710  0.7104580067580393
