Sc Cl  C 
 1.0000000000000000
    13.7939866799999997    0.0000000000000000    0.0000000000000000
    -6.8969933399999999   11.9459428800000005    0.0000000000000000
     0.0000000000000000    0.0000000000000000   27.8102210700000008
 Sc  Cl  C  
  32  32  16
Cartesian
 -0.0566033800000000  2.1368226300000002 15.0738445500000005
 -1.7647592400000001  4.9238864099999997 14.9681695700000006
 -3.2919354300000001  7.8341369299999997 15.0414822699999995
 -5.2270987599999996 10.8814401600000004 15.0420378800000005
  3.2687886200000000  1.9480072200000000 15.2422814300000002
  1.7303043100000000  5.0274928200000000 15.0660970699999996
 -0.0576258400000000  7.9573394799999999 15.2161058699999998
 -1.6331442199999999 10.8045009400000005 15.1505454299999993
  6.9442158400000000  2.1484161500000001 15.2412189100000006
  5.2865131200000004  5.0671289699999997 15.4079579899999999
  3.4367662399999999  7.8928248800000000 15.2045391100000007
  1.8547092900000000 10.8653405999999997 15.2026942199999997
 10.4102588399999991  2.0826524700000002 15.0429557099999993
  8.6480834899999994  5.1951314300000000 15.0220767300000002
  6.8671955699999998  7.9571673799999996 15.1672411999999994
  5.1601303600000001 11.0684593200000005 14.9231972499999994
  1.7194399100000000  0.9361351999999999 12.5982951599999993
  0.0743546200000000  3.9183653299999999 12.5074648600000007
 -1.5483606500000000  6.8509020200000004 12.7241225500000006
 -3.4391137199999999  9.9016892100000007 12.7423408800000004
  5.1964164999999998  0.8300547300000000 12.7493494900000002
  3.5092966699999999  3.9723211300000001 12.7852226899999994
  1.6567031299999999  6.8929061400000000 12.8427539599999996
  0.0222442800000000  9.9665306800000000 12.8673567099999993
  8.7199003800000003  1.0336093099999999 12.8082038600000008
  6.8553304900000001  4.0127850199999999 12.6932820900000003
  5.1940647599999998  7.0071799199999996 12.6675435899999993
  3.4298614500000002 10.0062027600000008 12.3655818600000007
 12.1512806399999995  0.9175359800000000 12.5865522199999997
 10.1993216899999997  4.0371758700000004 12.5000710300000009
  8.5396698799999999  6.9301116599999997 12.6407789400000006
  6.9548034699999999  9.8093959900000005 12.7317898100000004
  0.1864646000000000  1.8791503500000000 10.7466530500000008
 -1.5765477000000001  4.9713407099999998 10.9894587200000000
 -3.3469754100000002  7.8128787600000003 11.0306327500000005
 -5.2241708100000004 11.0430834499999992 10.9526090699999994
  3.5038831099999999  2.2095064099999999 11.0620644800000001
  1.6727353899999999  5.0788387000000004 11.0364910100000007
  0.1659228300000000  7.9529552800000003 11.0820420300000002
 -1.9872523499999999 10.8602952100000003 10.9844497699999994
  6.8784988199999999  1.9828487299999999 10.8870410700000004
  5.0782385300000001  5.0470017499999997 11.1135219500000009
  3.5878131400000002  8.0452216300000003 10.8580735799999992
  1.5994530199999999 10.9435565199999996 11.0387298000000005
 10.1532071199999994  1.9237677700000000 11.0444445400000006
  8.3006913499999992  4.9037290499999999 10.7095099099999995
  6.8662053600000004  7.9370703400000000 10.8470397799999994
  5.1909486200000003 10.9578733199999991 10.9469895000000008
  1.5166702400000001  0.9724960800000000 17.0901428499999994
  0.0494530100000000  4.0145087200000003 16.9363572600000012
 -1.6338580400000000  6.8405118800000002 16.8916938499999993
 -3.5034542800000001  9.9455484199999997 16.7709253700000005
  5.0700304100000002  0.8364082500000000 16.6513901299999993
  3.3330267199999999  3.8519429999999999 16.8164345799999992
  1.7928723400000000  7.0268262300000002 17.0389649299999988
  0.0207677900000000 10.0012661600000001 17.1040551100000009
  8.5065424699999994  0.9920181100000000 16.8657758000000015
  7.0234239699999996  4.0502575500000004 16.8307662799999989
  5.0298528300000003  7.1161889499999997 17.0861540500000011
  3.7238832300000002 10.0905989900000002 16.7919120500000005
 11.8404919199999998  0.9186915400000000 16.7287145899999992
 10.2111684199999999  4.0564250099999999 16.7993032400000004
  8.6491228499999995  7.2049174799999998 16.6109115600000017
  7.1425064699999998  9.9347077099999996 16.7686822599999985
 -6.8519723199999998 11.9207803200000004 13.9732692099999998
 -1.6895936800000000  2.9410839800000002 13.7593139900000008
 -3.3778237099999999  5.9958808899999996 13.8598130000000008
  8.5939169799999995  8.8871070900000007 13.8571208200000004
 -3.5917276100000000 11.9082197999999995 13.8166431099999993
  1.6896754500000000  3.0573850400000002 13.8011897000000001
 -0.0437726800000000  5.9679357499999997 13.9899157100000000
 -1.6059498600000000  8.8818800000000007 14.0551807800000006
  6.9345922199999999  0.0915933300000000 13.9781230500000007
  5.0556707400000001  3.0134268700000000 13.9734568699999997
  3.5078672000000002  6.0442930700000002 14.0049061800000008
  1.7033186499999999  9.1693666500000006 13.8580629299999991
 10.4307834400000008  0.1728050600000000 13.8428287000000001
  8.4399930899999998  3.0028863900000000 13.8730383699999997
  6.8937789100000000  5.9911667299999998 13.9298728900000004
  5.1398519699999996  8.9357772999999998 13.9964788200000001
