Sc Cl  C 
 1.0000000000000000
    13.7939866799999997    0.0000000000000000    0.0000000000000000
    -6.8969933399999999   11.9459428800000005    0.0000000000000000
     0.0000000000000000    0.0000000000000000   27.8102210700000008
 Sc  Cl  C  
  32  32  16
Cartesian
 -0.0248277400000000  2.1333247499999999 15.1478602799999997
 -1.8983526100000001  5.0392463000000003 15.1613788700000001
 -3.4529920600000001  8.0810129400000008 15.1311753499999995
 -5.1453657899999996 10.9233389299999999 15.2120473000000000
  3.4312520700000002  1.8703051200000000 15.1641877800000007
  1.6783761699999999  5.0851157000000002 15.0974368600000002
  0.0912614600000000  7.9855912599999996 15.1939075399999997
 -1.6389622399999999 11.0909057600000001 15.0918370900000003
  6.8806760799999998  1.9834041600000001 15.0824778399999992
  5.3021214600000004  4.8923930100000002 15.0399044699999997
  3.5182356000000001  8.0141762599999993 15.0626329900000009
  1.8128849199999999 11.0682064899999997 15.1848514699999999
 10.4909630800000002  1.9573645099999999 15.2033842400000001
  8.6195566499999998  4.8887997500000004 15.1270960599999995
  6.9977454799999999  7.8373691900000004 15.1402205599999995
  5.1494279399999998 10.6981809999999999 15.2253805000000000
  1.6911478099999999  1.0425806700000000 12.6578747200000006
  0.0459861400000000  4.0146477300000001 12.8032290500000006
 -1.6956533300000001  6.9855836900000003 12.7488140399999992
 -3.3707031600000001 10.0339959600000004 12.8280645700000004
  5.2133132499999997  1.1005125300000000 12.6347573000000004
  3.3106173000000001  3.9346397500000001 12.7728517700000008
  1.7046349199999999  7.0467726500000003 12.5694870999999999
  0.0200231100000000  9.9037171300000004 12.6434386300000003
  8.6196452499999996  1.0110643800000001 12.5370123800000002
  6.9337609599999999  3.9825990400000002 12.5398277100000008
  5.1328669099999997  6.8533622000000003 12.3707300100000008
  3.5227147799999998  9.8925972200000007 12.7105779099999996
 11.9969423499999994  0.8800181900000000 12.8052165000000002
 10.4160560100000001  4.0106321300000003 12.7974469800000001
  8.5779216500000004  7.0199985199999997 12.6756854699999995
  6.8371004800000001  9.9596962300000005 12.6101554300000007
 -0.0597247300000000  1.9881918700000001 11.0811634399999992
 -1.9257979700000001  5.1131433399999997 11.1427502599999997
 -3.4081535600000001  8.2105374799999993 10.8032182700000003
 -5.0319753499999997 11.0021071100000007 10.8258392000000008
  3.3392473599999999  1.9995996500000000 11.0489381299999998
  1.8716583600000001  4.6955167800000002 10.9593086100000008
  0.0492253900000000  7.5584432300000000 11.0291933100000001
 -1.8331339099999999 10.8909082500000007 11.0258350600000004
  6.6084208499999999  2.0521910999999999 10.8299068500000004
  4.9784158800000000  5.0256528999999999 10.9844286899999997
  3.2834258300000001  8.3724285900000002 10.8246695600000002
  1.5754597500000000 10.9780277799999997 11.0864897599999992
 10.2619481799999992  2.0120998600000002 10.9982989599999996
  8.7379089200000006  4.9606020099999997 10.9237877000000001
  6.7037559699999996  7.9357557500000002 10.8573295999999999
  5.2978195100000001 10.7752456300000006 10.9874594900000009
  1.6657168000000000  1.0204410600000000 16.9533698699999995
 -0.2720423400000000  3.9389973199999999 16.8879289600000000
 -1.5620886700000001  7.1574740800000001 16.7893462599999985
 -3.5664264600000002  9.9773547400000009 16.7274029700000000
  5.1456984500000003  1.2635494400000000 16.6886544199999989
  3.4140368200000002  4.0296568700000002 16.7275658299999996
  1.7333622099999999  6.9243821600000004 16.8519501600000012
  0.0725700100000000 10.0193018100000000 16.9138586300000000
  8.7514260099999994  0.8195217100000000 16.9416769199999990
  6.9544962000000003  3.8307142700000001 16.9694242600000003
  5.1530453200000004  6.9691064000000003 16.7673864799999990
  3.3681376099999998  9.6697220599999998 16.9229389499999989
 12.1264760999999996  0.9243242200000000 16.9538583100000011
 10.3649566199999992  3.9118694399999998 16.7496093700000017
  8.8434420100000004  7.0994707999999997 16.9169360500000003
  6.9492948200000004  9.9211096600000008 16.7564411100000008
  6.7987198299999996 11.8056603100000004 13.8182807800000003
 -1.6865541200000000  3.1795160899999999 13.7980625299999993
 10.2377863599999994  5.9367279000000002 14.0464281300000007
 -5.1519962399999999  8.9925122900000005 13.9386408399999997
 -3.4851337000000000 11.9280478300000006 13.9277807700000000
  1.7437580100000001  2.9383433200000000 14.0300427800000005
  0.0272956100000000  6.0834271400000004 14.0095039700000008
 -1.5443008199999999  9.0871291200000002 13.8529768799999999
  7.0267137100000001  0.1061929500000000 13.9221768400000006
  5.2099961500000003  2.9043195900000001 13.8595369099999992
  3.4232733000000000  6.0287401300000001 13.7499673799999993
  1.8005799899999999  8.9341946399999994 14.0057268100000005
  3.4907017499999999 11.9095645900000005 13.8789116000000003
  8.8511279700000003  2.8947302000000001 13.8917700899999996
  6.9348523000000002  5.8489332599999999 13.9337353499999992
  5.2901980300000000  8.8719690900000003 13.8984258500000006
