Sc Cl  C 
 1.0000000000000000
    13.7939866799999997    0.0000000000000000    0.0000000000000000
    -6.8969933399999999   11.9459428800000005    0.0000000000000000
     0.0000000000000000    0.0000000000000000   27.8102210700000008
 Sc  Cl  C  
  32  32  16
Cartesian
  0.0207983100000000  1.9076296699999999 15.1464082100000006
 -1.7083690400000000  4.9931891899999998 15.2270911600000005
 -3.3313604699999999  7.8849646900000003 15.0561611899999992
 -5.2086639400000001 10.8671710600000004 14.9495922799999992
  3.4332320099999998  1.8908927400000000 15.3244907399999999
  1.6441821800000000  5.0356384600000004 15.1737342399999999
 -0.0435881800000000  8.0570583399999993 15.2306734600000002
 -1.8659239400000001 11.0667493900000000 15.0416049500000000
  6.8459849999999998  1.8895750800000000 15.0211412499999994
  5.0808361000000000  5.1066230499999996 15.1911220799999995
  3.4336109300000000  8.0903116199999996 15.0399390099999994
  1.7324299100000000 10.9076924399999999 15.1255968799999998
 10.3354660200000001  2.0345152899999999 15.2231484699999999
  8.6201875000000001  4.9638673300000002 15.2041964200000006
  6.9487853800000003  7.9212155099999997 15.1863892000000007
  5.1861758699999996 10.9933091300000001 15.1794518600000004
  1.6957132300000000  0.9677175000000000 12.6980339299999994
  0.0696025900000000  3.9321281699999999 12.7495715399999998
 -1.5594792600000000  6.8535338699999997 12.6265762600000002
 -3.5487402100000001  9.9613617899999998 12.5204892099999991
  5.1078314499999999  0.9662006300000000 12.6329050200000008
  3.5012214500000001  4.0450538600000003 12.7210050799999994
  1.7528447100000000  6.9474607300000004 12.6192362199999994
  0.0031199100000000  9.9707763800000002 12.6605588299999994
  8.6340091399999999  1.0663019499999999 12.7096715899999992
  6.9213392799999998  4.0376333899999999 12.8425811999999997
  5.1189518200000004  7.0546833199999996 12.5827553200000004
  3.3716244500000001  9.9833850300000009 12.6551183799999993
 11.9184247499999998  1.0241347700000001 12.7054348099999999
 10.4455536200000001  3.9805399000000001 12.6404760599999992
  8.6993384900000006  6.9550474600000003 12.7093962600000001
  6.9511184799999999  9.8828175100000006 12.5880007599999999
 -0.1124218900000000  2.0877022200000002 11.2435999399999993
 -1.7071069400000001  5.0016193500000004 11.0024447199999997
 -3.2573511900000001  7.9644363100000000 11.0286720999999996
 -5.2709777700000000 11.1231651300000003 10.9799357999999998
  3.3987491500000000  1.9351873600000000 10.9535821599999998
  1.9487870899999999  4.8684416500000003 11.0772469499999993
  0.0060539500000000  8.0497506500000000 10.9321676799999992
 -1.7953190100000000 11.0931263900000001 10.8861221700000002
  6.8245922099999996  2.0158750599999999 11.0534094500000002
  5.3908257800000001  4.9709374500000001 10.8927647499999996
  3.3616740200000002  7.8280503100000001 10.8619678299999993
  1.7990659499999999 10.9264969900000004 10.8252032200000006
 10.3921761600000000  1.8379600000000000 10.9899666099999997
  8.8137722499999995  4.8737921899999996 11.1706762600000005
  7.0039208899999998  7.7384202300000000 10.8895805100000000
  5.1141699999999997 10.9051399100000008 10.9129571599999995
  1.5919544200000000  0.9836521800000000 16.9540722799999983
 -0.1666248100000000  3.9670038399999998 17.0291550600000008
 -1.8273940600000000  7.0489802099999999 16.8549389100000013
 -3.4339392100000001  9.9706742300000002 16.4973789400000008
  5.1363083500000002  0.8565937300000001 16.9185170099999986
  3.4355904000000002  4.0342147400000004 16.8776576200000008
  1.5468964999999999  6.9317221800000004 16.8395157699999984
  0.2066910400000000  9.9125902200000002 16.7661382799999998
  8.4891071199999999  1.0170809900000000 16.8927118299999997
  6.8990071500000001  3.8875774800000000 16.7107922100000010
  5.0732484299999996  7.0899726400000000 16.9847793200000012
  3.4898161000000001 10.0587040900000009 16.8826720600000009
 11.9694954899999999  0.9665043700000000 16.8434457500000008
 10.4144211400000000  4.0938460900000004 16.8606972699999993
  8.7212639500000009  7.0159713600000000 16.7181761000000009
  6.9982959500000002  9.9238191199999992 16.7622200799999987
  6.8822246199999997 11.9116185300000001 13.9342310299999994
 -1.6634462200000000  2.9894084200000002 13.9303474999999999
 -3.3581998799999999  6.0273007900000000 13.8050091300000002
  8.5764105700000002  8.9309212999999996 13.7559812099999998
  3.3498142600000000  0.0588710900000000 13.8067168400000000
  1.7783953500000000  2.9132894899999999 13.9902610299999992
  0.0977039800000000  5.8741245400000004 13.9507327300000004
 -1.7443504100000000  8.8197065200000004 13.9974976200000008
 -0.0129984500000000 11.9330529999999992 13.7944512600000007
  5.2124692300000000  3.0751964599999999 13.9203800300000005
  3.3828931000000000  6.1562740399999996 13.7276407099999993
  1.7137047100000000  9.0922031699999994 13.9071143700000004
  3.4531851499999999 11.9367023700000008 13.8489731900000006
  8.7610332700000004  2.9707737900000000 13.9540210299999998
  6.9684033599999999  6.0135072500000000 13.8385000999999992
  5.1232264900000004  8.8815820700000003 13.8661464300000006
