Sc  F  C 
 1.0000000000000000
    13.1286234000000004    0.0000000000000000    0.0000000000000000
    -6.5643117000000002   11.3697213799999997    0.0000000000000000
     0.0000000000000000    0.0000000000000000   26.8280942399999986
 Sc  F   C  
  32  32  16
Cartesian
 -0.0812396100000000  1.8718747800000000 12.1248693500000009
 -1.6658098400000001  4.7813035499999996 12.2159384499999994
 -3.3133798400000001  7.6012369000000000 12.2086799599999996
 -4.9347103399999996 10.5252451899999997 12.0915439899999999
  3.3395597600000002  1.8353645599999999 12.1296601200000005
  1.5725759699999999  4.6546440599999999 12.1369787000000002
  0.0387000800000000  7.5036184700000002 12.1570216299999991
 -1.6380310300000001 10.3731704100000002 12.2399510700000000
  6.5166046299999998  1.8829163000000000 12.1599295999999999
  4.9541793099999998  4.6627101900000003 12.0689304600000007
  3.2493148199999999  7.5481431099999998 12.0851112199999999
  1.4914547800000000 10.3584614100000003 12.1887830600000004
  9.7263406499999991  1.9542834099999999 11.8887969600000005
  8.1501125099999996  4.7933107300000000 12.0829803600000005
  6.6680378500000002  7.5455448599999997 12.2779805599999996
  4.8783931300000001 10.4001455600000003 11.9749645900000008
  1.6498686400000000  0.9322500800000000 14.6617148099999994
  0.0743392400000000  3.7520741300000000 14.7187483100000005
 -1.5921846900000001  6.5924812900000003 14.7205631399999994
 -3.3083030999999998  9.4968492799999993 14.6585632900000000
  4.9007514800000003  0.9319864000000000 14.7448606099999999
  3.4344828100000000  3.8906045200000001 14.6640197299999997
  1.6812756300000000  6.5868491400000000 14.6823420599999999
  0.0930336200000000  9.3217077400000008 14.8757312699999993
  8.2549219600000008  0.9709331500000000 14.6789193299999994
  6.6303180800000003  3.6894545399999998 14.7635571300000006
  4.9577182000000004  6.6743669600000004 14.7290496900000001
  3.2082468600000000  9.5409712300000002 14.6068568400000007
 11.3960996800000007  0.9042461600000000 14.6483842699999993
  9.8656052100000000  3.8216480900000001 14.7042050199999998
  8.1470018599999996  6.5926300400000004 14.7274838399999997
  6.4758618600000002  9.5557900199999999 14.6563436300000003
 -0.1927519300000000  1.8916340100000000 15.7575620500000007
 -1.6060664700000000  4.8802177200000001 15.8649759100000001
 -3.3201147000000000  7.6159193600000004 15.7853899200000001
 -4.9529374300000004 10.4607445400000003 15.8030778000000005
  3.2554797700000000  1.9164594900000000 15.8736647000000008
  1.5587064700000000  4.7099172300000003 15.9040338999999999
  0.0328063000000000  7.5225136900000003 15.9204668700000003
 -1.6610434300000001 10.3360744699999998 15.8104835500000007
  6.5305616400000002  1.8651158500000000 15.9171504099999996
  5.1358655400000002  4.8363183200000002 16.0241953099999996
  3.3970519600000002  7.6084646500000002 15.7590620799999996
  1.5320595299999999 10.5617858299999998 15.9778595100000000
  9.9466567900000005  1.8256969199999999 15.8725992399999996
  8.3736927800000007  4.6887189400000002 15.8745081799999994
  6.6484135499999999  7.5644801599999996 15.8738429399999994
  4.9368994400000004 10.5505588600000006 15.6876760799999992
  1.6351394900000000  1.0081850100000000 10.8940911899999993
  0.0778345100000000  3.9044263400000001 10.9950679800000000
 -1.6274029699999999  6.5352208699999998 11.0869651299999994
 -3.1207134399999998  9.4906585999999997 10.9443752500000002
  4.8601631400000000  0.8671448600000000 11.1712734099999995
  3.2560831000000001  3.9946670900000001 11.0885619599999998
  1.5453212999999999  6.7685681300000002 10.8991434700000003
  0.0000359000000000  9.3844130600000000 10.9955256299999995
  8.2667217900000001  1.0404830500000000 10.8854447299999997
  6.4077834899999999  3.7691996200000002 10.9165763099999999
  5.3383878200000003  6.4466812500000001 10.9461706799999998
  3.2125833199999998  9.4326621300000006 10.8882495600000002
 11.3874955700000005  0.8732019400000000 11.0386635900000005
  9.8090362800000008  3.8219705099999999 10.9040261800000007
  8.2168335500000005  6.7615224999999999 10.8261790599999994
  6.6859033900000000  9.5285604799999994 10.9998548700000001
 -0.0397072500000000  0.1343311500000000 13.3959830899999996
 -1.6026993199999999  2.8936475399999999 13.3044749200000005
 -3.2759358299999999  5.7654803799999996 13.4210952799999994
  8.1252432199999998  8.5954016699999993 13.4337817800000003
 -3.3039885199999999 11.3366123600000002 13.4139448100000003
  1.5768130000000000  2.9020073000000002 13.4461806100000008
  0.0816790400000000  5.6691142899999996 13.5029213600000002
 -1.6026336900000000  8.5481692099999993 13.5874303699999999
  6.4663245500000004  0.0940247900000000 13.4700968400000001
  4.8429657800000001  2.9032085300000001 13.4300062499999999
  3.4275493500000001  5.7965131400000001 13.4740701499999993
  1.6189963599999999  8.4897434999999994 13.4402142799999993
  3.1955232699999998 11.2174546399999997 13.3438167399999994
  8.2899463299999994  2.9059222800000000 13.2919420200000005
  6.6193530500000000  5.6039783300000003 13.3647884300000008
  4.8941927600000001  8.6176102100000005 13.3136182699999992
