Sc Cl  C 
 1.0000000000000000
    13.7939866799999997    0.0000000000000000    0.0000000000000000
    -6.8969933399999999   11.9459428800000005    0.0000000000000000
     0.0000000000000000    0.0000000000000000   27.8102210700000008
 Sc  Cl  C  
  32  32  16
Cartesian
  0.0639366100000000  1.9454447200000000 15.1306033299999996
 -1.7802653100000001  5.0590522800000004 15.1463595299999998
 -3.3339789199999998  7.9835915899999996 15.1640764400000005
 -5.1489799600000001 10.8261933999999993 15.1522264999999994
  3.3141024500000000  2.0350009999999998 15.2481136900000003
  1.7143321199999999  5.0440981799999998 15.2567289499999994
  0.0720841300000000  8.0180604599999992 15.1215058199999994
 -1.6998989499999999 10.9455096500000000 15.0430171200000000
  6.9636240699999998  2.1275486199999998 15.2071251200000006
  5.2007891600000002  4.9492084600000004 15.0126425700000006
  3.4982084200000001  7.9570132600000001 15.1258155399999996
  1.7411530700000000 11.0448311799999992 15.0836837300000006
 10.3487836499999997  1.9042231100000000 15.1464192499999992
  8.5659568600000000  5.1639289399999999 15.1592366300000005
  6.8546146800000001  8.0358569400000004 15.1530235399999995
  5.2502153399999996 10.9705739900000001 15.0928317500000002
  1.7122346399999999  1.0315726000000001 12.6406494299999999
  0.0766620000000000  3.9246846099999999 12.7856960399999995
 -1.6679083299999999  7.0472329000000000 12.6032137800000008
 -3.5406987499999998  9.9709254900000008 12.6083037699999991
  5.0164456499999996  1.1062201000000000 12.7854065699999992
  3.4199647899999999  4.0632858199999999 12.6208441899999997
  1.7152564200000000  6.9689106900000004 12.6774752999999993
 -0.0087982300000000  9.9705063400000000 12.6774318699999995
  8.6406310499999996  0.9921527900000000 12.7058109699999999
  7.0329738400000004  3.9925920399999999 12.5877772700000001
  5.2118461500000004  6.9342792199999996 12.6904936999999993
  3.3612717399999998  9.9550281700000003 12.5915886500000003
 12.0875691100000004  0.9941158400000000 12.6403075999999999
 10.3359378399999997  3.9782763900000000 12.6137580899999993
  8.6953053899999997  6.9781700000000004 12.7202440200000009
  6.8681624399999999  9.9693823300000002 12.5748788699999992
  0.0039656100000000  2.0172058399999999 10.8277290799999992
 -1.7461088899999999  4.7843650000000002 11.1103809899999995
 -3.4163371800000002  7.8242662400000000 11.0450144899999998
 -5.1370809599999996 11.0473540299999993 11.0232845299999997
  3.5055606400000001  1.8954577500000001 10.9283611500000006
  1.6978809399999999  5.0545031199999997 11.0133397399999993
  0.2569034200000000  7.9133670499999997 11.0059805199999996
 -1.8655827100000000 10.9321844400000003 11.0358178599999999
  6.8639024300000004  1.8589686200000000 11.0311439100000008
  5.2946010299999999  4.9812422099999996 10.9956110500000008
  3.5473494900000002  8.1559427800000002 10.9649729800000006
  1.7770328500000001 10.9111034599999996 10.9793087899999993
 10.2923667499999993  1.8717299000000001 11.0680100499999998
  8.6559050299999996  4.9206702399999998 10.8373410400000001
  7.0382783499999997  7.8927441700000003 11.0447892999999997
  5.2381615500000001 11.0273970200000004 10.9462028700000005
  1.5838985100000000  0.8978500600000000 16.8719037900000011
 -0.0815578400000000  4.0027282199999998 16.6723887499999996
 -1.8072379700000001  7.0881583600000004 16.9284057399999988
 -3.3977610999999999 10.0114373000000008 16.8716316800000001
  5.3078125399999996  0.8199982500000000 16.7729004300000000
  3.3784019800000000  3.9529140100000002 16.9161365500000009
  1.7413057300000001  6.9900781900000002 16.7990336499999984
  0.0627722500000000  9.8877836000000006 16.9002044699999985
  8.5045132799999994  0.8655571600000000 16.6765111700000013
  6.7398146199999998  3.9823162700000001 16.8522303700000009
  5.1507316699999999  6.9510381299999997 16.8502940599999995
  3.4035141000000002  9.8102093700000008 16.8140460800000007
 11.9779759699999993  0.7916738500000000 16.8644313699999984
 10.1144800600000000  4.0346317999999997 16.7925421200000002
  8.5491075999999993  7.0746003100000001 16.8950424499999983
  6.9119523799999998 10.1241870499999997 16.9712115499999996
 -6.8577387600000002 11.9387062099999994 13.9152338600000007
 12.0888924800000002  2.8156215200000001 13.8618280100000000
 -3.4520832499999998  6.0096660499999999 13.8891720999999997
  8.6468699499999992  8.8921372499999993 13.9650266700000003
 -3.5030935799999998 11.8183340099999992 13.9239762700000007
  1.7564428599999999  3.0654260700000000 13.9171404899999995
 -0.1259785900000000  5.9434655699999999 13.9019051699999991
 -1.7230687800000000  8.8461186999999999 13.8238901900000002
  6.8538126699999999  0.0555176700000000 13.9047554499999997
  5.1530041100000004  3.0107977799999999 13.8688379000000008
  3.4380114599999998  5.9263421100000002 13.8569336799999991
  1.7510273900000000  8.8411843799999996 13.8095510000000008
 10.3158889299999998  0.0160685100000000 13.8222858300000002
  8.6264772999999995  2.9378487799999999 13.9251475899999999
  6.7654931899999999  5.8938028200000003 13.9341223999999997
  5.1886064999999997  8.9877162199999994 13.8851318900000003
